     Program PWSCF v.6.7MaX starts on 19Jan2024 at 14: 7:37

     R & G space division:  proc/nbgrp/npool/nimage =      32
     Waiting for input...
     Reading input from standard input

     Current dimensions of program PWSCF are:
     Max number of different atomic species (ntypx) = 10
     Max number of k-points (npk) =  40000
     Max angular momentum in pseudopotentials (lmaxx) =  3
     Message from routine read_pp_mesh:
     mesh size missing, using the one in header

     Subspace diagonalization in iterative solution of the eigenvalue problem:
     a serial algorithm will be used

     bravais-lattice index     =            4
     lattice parameter (alat)  =       4.2700  a.u.
     unit-cell volume          =     639.5013 (a.u.)^3
     number of atoms/cell      =            2
     number of atomic types    =            1
     number of electrons       =         8.00
     number of Kohn-Sham states=            8
     kinetic-energy cutoff     =      50.0000  Ry
     charge density cutoff     =     200.0000  Ry
     scf convergence threshold =      1.0E-08
     mixing beta               =       0.7000
     number of iterations used =            8  plain     mixing
     energy convergence thresh.=      1.0E-04
     force convergence thresh. =      1.0E-08
     press convergence thresh. =      1.0E-03
     Exchange-correlation= PBE
                           (   1   4   3   4   0   0   0)
     nstep                     =           50

     celldm(1)=   4.270000  celldm(2)=   0.000000  celldm(3)=   9.484778
     celldm(4)=   0.000000  celldm(5)=   0.000000  celldm(6)=   0.000000

     crystal axes: (cart. coord. in units of alat)
               a(1) = (   1.000000   0.000000   0.000000 )
               a(2) = (  -0.500000   0.866025   0.000000 )
               a(3) = (   0.000000   0.000000   9.484778 )

     reciprocal axes: (cart. coord. in units 2 pi/alat)
               b(1) = (  1.000000  0.577350  0.000000 )
               b(2) = (  0.000000  1.154701  0.000000 )
               b(3) = (  0.000000  0.000000  0.105432 )

     PseudoPot. # 1 for C  read from file:
     /home/yhkim/qe-6.7/pseudo/ONCV1/1.2/C_ONCV_PBE-1.2.upf
     MD5 check sum: 1a5f83a7b1f58d24996abe00ed223ac6
     Pseudo is Norm-conserving, Zval =  4.0
     Generated using ONCVPSP code by D. R. Hamann
     Using radial grid of  602 points,  4 beta functions with:
                l(1) =   0
                l(2) =   0
                l(3) =   1
                l(4) =   1

     atomic species   valence    mass     pseudopotential
        C              4.00    12.01070     C ( 1.00)

     24 Sym. Ops., with inversion, found

   Cartesian axes

     site n.     atom                  positions (alat units)
         1           C   tau(   1) = (  -0.0000000   0.5773503   4.7423888  )
         2           C   tau(   2) = (   0.5000000   0.2886751   4.7423888  )

     number of k points=    27  Methfessel-Paxton smearing, width (Ry)=  0.0100
                       cart. coord. in units 2pi/alat
        k(    1) = (   0.0000000   0.0000000   0.0000000), wk =   0.0088889
        k(    2) = (   0.0000000   0.0769800   0.0000000), wk =   0.0533333
        k(    3) = (   0.0000000   0.1539601   0.0000000), wk =   0.0533333
        k(    4) = (   0.0000000   0.2309401   0.0000000), wk =   0.0533333
        k(    5) = (   0.0000000   0.3079201   0.0000000), wk =   0.0533333
        k(    6) = (   0.0000000   0.3849002   0.0000000), wk =   0.0533333
        k(    7) = (   0.0000000   0.4618802   0.0000000), wk =   0.0533333
        k(    8) = (   0.0000000   0.5388603   0.0000000), wk =   0.0533333
        k(    9) = (   0.0666667   0.1154701   0.0000000), wk =   0.0533333
        k(   10) = (   0.0666667   0.1924501   0.0000000), wk =   0.1066667
        k(   11) = (   0.0666667   0.2694301   0.0000000), wk =   0.1066667
        k(   12) = (   0.0666667   0.3464102   0.0000000), wk =   0.1066667
        k(   13) = (   0.0666667   0.4233902   0.0000000), wk =   0.1066667
        k(   14) = (   0.0666667   0.5003702   0.0000000), wk =   0.1066667
        k(   15) = (   0.0666667   0.5773503   0.0000000), wk =   0.0533333
        k(   16) = (   0.1333333   0.2309401   0.0000000), wk =   0.0533333
        k(   17) = (   0.1333333   0.3079201   0.0000000), wk =   0.1066667
        k(   18) = (   0.1333333   0.3849002   0.0000000), wk =   0.1066667
        k(   19) = (   0.1333333   0.4618802   0.0000000), wk =   0.1066667
        k(   20) = (   0.1333333   0.5388603   0.0000000), wk =   0.1066667
        k(   21) = (   0.2000000   0.3464102   0.0000000), wk =   0.0533333
        k(   22) = (   0.2000000   0.4233902   0.0000000), wk =   0.1066667
        k(   23) = (   0.2000000   0.5003702   0.0000000), wk =   0.1066667
        k(   24) = (   0.2000000   0.5773503   0.0000000), wk =   0.0533333
        k(   25) = (   0.2666667   0.4618802   0.0000000), wk =   0.0533333
        k(   26) = (   0.2666667   0.5388603   0.0000000), wk =   0.1066667
        k(   27) = (   0.3333333   0.5773503   0.0000000), wk =   0.0177778

     Initial potential from superposition of free atoms

     starting charge    7.98607, renormalised to    8.00000

     negative rho (up, down):  1.037E-04 0.000E+00
     Starting wfcs are random

     Self-consistent Calculation

     iteration #  1     ecut=    50.00 Ry     beta= 0.70
     Davidson diagonalization with overlap
     ethr =  1.00E-02,  avg # of iterations = 11.1

     negative rho (up, down):  1.807E-07 0.000E+00

     total energy              =     -22.64938715 Ry
     estimated scf accuracy    <       0.33723036 Ry

[...]

     End of self-consistent calculation

          k = 0.0000 0.0000 0.0000 (  3823 PWs)   bands (ev):

   -25.1571 -12.9744  -6.3121  -1.0268  -0.2098   0.5634   0.9189   2.2430

[...]

     the Fermi energy is    -3.3692 ev

!    total energy              =     -22.70104561 Ry
     estimated scf accuracy    <          5.2E-09 Ry
     smearing contrib. (-TS)   =      -0.00003668 Ry
     internal energy E=F+TS    =     -22.70100893 Ry

     The total energy is F=E-TS. E is the sum of the following terms:
     one-electron contribution =    -461.66260392 Ry
     hartree contribution      =     231.65082957 Ry
     xc contribution           =      -7.40642054 Ry
     ewald contribution        =     214.71718596 Ry

     convergence has been achieved in   6 iterations

     Forces acting on atoms (cartesian axes, Ry/au):

     atom    1 type  1   force =     0.00000000    0.00000000    0.00000000
     atom    2 type  1   force =     0.00000000    0.00000000    0.00000000

     Total force =     0.000000     Total SCF correction =     0.000000

     Computing stress (Cartesian axis) and pressure

          total   stress  (Ry/bohr**3)                   (kbar)     P=      139.04
   0.00148515  -0.00000000   0.00000000          218.47       -0.00        0.00
  -0.00000000   0.00148515   0.00000000           -0.00      218.47        0.00
   0.00000000   0.00000000  -0.00013475            0.00        0.00      -19.82

     BFGS Geometry Optimization
     Energy error            =      0.0E+00
     Gradient error          =      0.0E+00
     Cell gradient error     =      1.5E-03

     number of scf cycles    =   1
     number of bfgs steps    =   0

     enthalpy new            =     -22.7010456050 Ry

     new trust radius        =       0.1877850603 bohr
     new conv_thr            =       0.0000000100 Ry

     new unit-cell volume =    687.87061 a.u.^3 (   101.93191 Ang^3 )
     density =      0.39132 g/cm^3

CELL_PARAMETERS (alat=  4.27000000)
   1.037128751  -0.000000000   0.000000000
  -0.518564376   0.898179846   0.000000000
   0.000000000   0.000000000   9.484777518

ATOMIC_POSITIONS (crystal)
C             0.3333333333        0.6666666667        0.5000000000
C             0.6666666667        0.3333333333        0.5000000000

     Writing output data file ./work/LiC427.save/
     NEW-OLD atomic charge density approx. for the potential

     negative rho (up, down):  9.809E-05 0.000E+00
     extrapolated charge    8.56156, renormalised to    8.00000

[...]

     iteration #  1     ecut=    50.00 Ry     beta= 0.70
     Davidson diagonalization with overlap
     c_bands:  1 eigenvalues not converged
     c_bands:  1 eigenvalues not converged
     c_bands:  1 eigenvalues not converged
     c_bands:  2 eigenvalues not converged
     c_bands:  2 eigenvalues not converged
     c_bands:  3 eigenvalues not converged
     c_bands:  4 eigenvalues not converged
     c_bands:  5 eigenvalues not converged
     c_bands:  1 eigenvalues not converged
     c_bands:  2 eigenvalues not converged
     c_bands:  2 eigenvalues not converged
     c_bands:  4 eigenvalues not converged
     c_bands:  3 eigenvalues not converged
     c_bands:  4 eigenvalues not converged
     c_bands:  2 eigenvalues not converged
     c_bands:  2 eigenvalues not converged
     c_bands:  2 eigenvalues not converged
     c_bands:  4 eigenvalues not converged
     c_bands:  4 eigenvalues not converged
     c_bands:  5 eigenvalues not converged
     c_bands:  3 eigenvalues not converged
     c_bands:  5 eigenvalues not converged
     c_bands:  5 eigenvalues not converged
     c_bands:  5 eigenvalues not converged
     c_bands:  5 eigenvalues not converged
     c_bands:  5 eigenvalues not converged
     c_bands:  5 eigenvalues not converged
     ethr =  1.00E-06,  avg # of iterations = 20.0

[...]

     Energy error            =      5.2E-02
     Gradient error          =      1.7E-26
     Cell gradient error     =      6.4E-04

[...]

     enthalpy old            =     -22.7010456050 Ry
     enthalpy new            =     -22.7533100438 Ry

     CASE: enthalpy_new < enthalpy_old

[...]

     Writing output data file ./work/LiC427.save/
     NEW-OLD atomic charge density approx. for the potential

     negative rho (up, down):  5.670E-06 0.000E+00
     extrapolated charge    8.10470, renormalised to    8.00000

[...]

     Writing output data file ./work/LiC427.save/
     NEW-OLD atomic charge density approx. for the potential
     extrapolated charge    8.01348, renormalised to    8.00000

[...]

     Threshold (ethr) on eigenvalues was too large:
     Diagonalizing with lowered threshold

     Davidson diagonalization with overlap
     ethr =  4.20E-10,  avg # of iterations =  1.8

[...]

     number of scf cycles    =   6
     number of bfgs steps    =   5

     enthalpy old            =     -22.7689034094 Ry
     enthalpy new            =     -22.7689034150 Ry

     CASE: enthalpy_new < enthalpy_old

     small trust_radius: resetting bfgs history

     new trust radius        =       0.0000013011 bohr
     new conv_thr            =            1.0E-10 Ry

     new unit-cell volume =    739.43579 a.u.^3 (   109.57308 Ang^3 )
     density =      0.36404 g/cm^3

[...]

ATOMIC_POSITIONS (crystal)
C             0.3333333333        0.6666666667        0.5000000000
C             0.6666666667        0.3333333333        0.5000000000

     Writing output data file ./work/LiC427.save/
     NEW-OLD atomic charge density approx. for the potential
     extrapolated charge    8.00000, renormalised to    8.00000

[...]

     Threshold (ethr) on eigenvalues was too large:
     Diagonalizing with lowered threshold

     Davidson diagonalization with overlap
     ethr =  7.12E-14,  avg # of iterations =  2.0

[...]

     Energy error            =      1.0E-11
     Gradient error          =      1.6E-26
     Cell gradient error     =      6.2E-09

     bfgs converged in   7 scf cycles and   6 bfgs steps
     (criteria: energy <  1.0E-04 Ry, force <  1.0E-08Ry/Bohr, cell <  1.0E-03kbar)

     End of BFGS Geometry Optimization

     Final enthalpy =     -22.7689034150 Ry

     File ./work/LiC427.bfgs deleted, as requested
Begin final coordinates
     new unit-cell volume =    739.43579 a.u.^3 (   109.57308 Ang^3 )
     density =      0.36404 g/cm^3

CELL_PARAMETERS (alat=  4.27000000)
   1.075299717  -0.000000000   0.000000000
  -0.537649858   0.931236871   0.000000000
   0.000000000   0.000000000   9.484777518

ATOMIC_POSITIONS (crystal)
C             0.3333333333        0.6666666667        0.5000000000
C             0.6666666667        0.3333333333        0.5000000000
End final coordinates

     Writing output data file ./work/LiC427.save/

     Final scf calculation at the relaxed structure.
     The G-vectors are recalculated for the final unit cell
     Results may differ from those at the preceding step.

     bravais-lattice index     =            4
     lattice parameter (alat)  =       4.2700  a.u.
     unit-cell volume          =     739.4358 (a.u.)^3
     number of atoms/cell      =            2
     number of atomic types    =            1
     number of electrons       =         8.00
     number of Kohn-Sham states=            8
     kinetic-energy cutoff     =      50.0000  Ry
     charge density cutoff     =     200.0000  Ry
     scf convergence threshold =      1.0E-10
     mixing beta               =       0.7000
     number of iterations used =            8  plain     mixing
     press convergence thresh. =      1.0E-03
     Exchange-correlation= PBE
                           (   1   4   3   4   0   0   0)

     celldm(1)=   4.270000  celldm(2)=   0.000000  celldm(3)=   9.484778
     celldm(4)=   0.000000  celldm(5)=   0.000000  celldm(6)=   0.000000

     crystal axes: (cart. coord. in units of alat)
               a(1) = (   1.075300  -0.000000   0.000000 )
               a(2) = (  -0.537650   0.931237   0.000000 )
               a(3) = (   0.000000   0.000000   9.484778 )

     reciprocal axes: (cart. coord. in units 2 pi/alat)
               b(1) = (  0.929973  0.536920  0.000000 )
               b(2) = (  0.000000  1.073841  0.000000 )
               b(3) = (  0.000000  0.000000  0.105432 )

     PseudoPot. # 1 for C  read from file:
     /home/yhkim/qe-6.7/pseudo/ONCV1/1.2/C_ONCV_PBE-1.2.upf
     MD5 check sum: 1a5f83a7b1f58d24996abe00ed223ac6
     Pseudo is Norm-conserving, Zval =  4.0
     Generated using ONCVPSP code by D. R. Hamann
     Using radial grid of  602 points,  4 beta functions with:
                l(1) =   0
                l(2) =   0
                l(3) =   1
                l(4) =   1

     atomic species   valence    mass     pseudopotential
        C              4.00    12.01070     C ( 1.00)

     24 Sym. Ops., with inversion, found

   Cartesian axes

     site n.     atom                  positions (alat units)
         1           C   tau(   1) = (  -0.0000000   0.6208246   4.7423888  )
         2           C   tau(   2) = (   0.5376499   0.3104123   4.7423888  )

     number of k points=    27  Methfessel-Paxton smearing, width (Ry)=  0.0100
                       cart. coord. in units 2pi/alat
        k(    1) = (   0.0000000   0.0000000   0.0000000), wk =   0.0088889
        k(    2) = (   0.0000000   0.0715894   0.0000000), wk =   0.0533333
        k(    3) = (   0.0000000   0.1431788   0.0000000), wk =   0.0533333
        k(    4) = (   0.0000000   0.2147681   0.0000000), wk =   0.0533333
        k(    5) = (   0.0000000   0.2863575   0.0000000), wk =   0.0533333
        k(    6) = (   0.0000000   0.3579469   0.0000000), wk =   0.0533333
        k(    7) = (   0.0000000   0.4295363   0.0000000), wk =   0.0533333
        k(    8) = (   0.0000000   0.5011256   0.0000000), wk =   0.0533333
        k(    9) = (   0.0619982   0.1073841   0.0000000), wk =   0.0533333
        k(   10) = (   0.0619982   0.1789734   0.0000000), wk =   0.1066667
        k(   11) = (   0.0619982   0.2505628   0.0000000), wk =   0.1066667
        k(   12) = (   0.0619982   0.3221522   0.0000000), wk =   0.1066667
        k(   13) = (   0.0619982   0.3937416   0.0000000), wk =   0.1066667
        k(   14) = (   0.0619982   0.4653309   0.0000000), wk =   0.1066667
        k(   15) = (   0.0619982   0.5369203   0.0000000), wk =   0.0533333
        k(   16) = (   0.1239964   0.2147681   0.0000000), wk =   0.0533333
        k(   17) = (   0.1239964   0.2863575   0.0000000), wk =   0.1066667
        k(   18) = (   0.1239964   0.3579469   0.0000000), wk =   0.1066667
        k(   19) = (   0.1239964   0.4295363   0.0000000), wk =   0.1066667
        k(   20) = (   0.1239964   0.5011256   0.0000000), wk =   0.1066667
        k(   21) = (   0.1859947   0.3221522   0.0000000), wk =   0.0533333
        k(   22) = (   0.1859947   0.3937416   0.0000000), wk =   0.1066667
        k(   23) = (   0.1859947   0.4653309   0.0000000), wk =   0.1066667
        k(   24) = (   0.1859947   0.5369203   0.0000000), wk =   0.0533333
        k(   25) = (   0.2479929   0.4295363   0.0000000), wk =   0.0533333
        k(   26) = (   0.2479929   0.5011256   0.0000000), wk =   0.1066667
        k(   27) = (   0.3099911   0.5369203   0.0000000), wk =   0.0177778

     Initial potential from superposition of free atoms

     starting charge    7.98607, renormalised to    8.00000

     negative rho (up, down):  1.113E-04 0.000E+00
     Starting wfcs are random

     Self-consistent Calculation

[...]

     negative rho (up, down):  2.756E-06 0.000E+00

[...]

     iteration #  4     ecut=    50.00 Ry     beta= 0.70
     Davidson diagonalization with overlap
     c_bands:  1 eigenvalues not converged
     ethr =  2.21E-06,  avg # of iterations =  6.2

[...]

     total energy              =     -22.78856720 Ry
     estimated scf accuracy    <          9.7E-10 Ry

     iteration #  7     ecut=    50.00 Ry     beta= 0.70
     Davidson diagonalization with overlap
     ethr =  1.21E-11,  avg # of iterations =  3.0

     End of self-consistent calculation

[...]

          k = 0.3100 0.5369 0.0000 (  4395 PWs)   bands (ev):

   -16.8770 -16.8770 -15.0415  -4.1137  -4.1137   6.5776   9.0629   9.0630

     the Fermi energy is    -4.1137 ev

!    total energy              =     -22.78856720 Ry
     estimated scf accuracy    <          1.2E-11 Ry
     smearing contrib. (-TS)   =      -0.00005015 Ry
     internal energy E=F+TS    =     -22.78851705 Ry

     The total energy is F=E-TS. E is the sum of the following terms:
     one-electron contribution =    -398.50556563 Ry
     hartree contribution      =     199.90170571 Ry
     xc contribution           =      -7.07388846 Ry
     ewald contribution        =     182.88923133 Ry

     convergence has been achieved in   7 iterations

     Forces acting on atoms (cartesian axes, Ry/au):

     atom    1 type  1   force =     0.00000000    0.00000000    0.00000000
     atom    2 type  1   force =     0.00000000    0.00000000    0.00000000

     Total force =     0.000000     Total SCF correction =     0.000000

     Computing stress (Cartesian axis) and pressure

          total   stress  (Ry/bohr**3)                   (kbar)     P=        3.62
   0.00009275  -0.00000000   0.00000000           13.64       -0.00        0.00
  -0.00000000   0.00009275   0.00000000           -0.00       13.64        0.00
   0.00000000   0.00000000  -0.00011176            0.00        0.00      -16.44

     Writing output data file ./work/LiC427.save/

     General routines

     Parallel routines

   This run was terminated on:  14: 8: 1  19Jan2024

   JOB DONE.