     Program PWSCF v.6.7MaX starts on 19Jan2024 at 15:49: 7

     R & G space division:  proc/nbgrp/npool/nimage =      32
     Waiting for input...
     Reading input from standard input

     Current dimensions of program PWSCF are:
     Max number of different atomic species (ntypx) = 10
     Max number of k-points (npk) =  40000
     Max angular momentum in pseudopotentials (lmaxx) =  3
     Message from routine read_pp_mesh:
     mesh size missing, using the one in header

     Subspace diagonalization in iterative solution of the eigenvalue problem:
     a serial algorithm will be used

     bravais-lattice index     =            4
     lattice parameter (alat)  =       5.7000  a.u.
     unit-cell volume          =    1139.5552 (a.u.)^3
     number of atoms/cell      =            2
     number of atomic types    =            1
     number of electrons       =         8.00
     number of Kohn-Sham states=            8
     kinetic-energy cutoff     =      50.0000  Ry
     charge density cutoff     =     200.0000  Ry
     scf convergence threshold =      1.0E-08
     mixing beta               =       0.7000
     number of iterations used =            8  plain     mixing
     energy convergence thresh.=      1.0E-04
     force convergence thresh. =      1.0E-08
     press convergence thresh. =      1.0E-03
     Exchange-correlation= PBE
                           (   1   4   3   4   0   0   0)
     nstep                     =           50

     celldm(1)=   5.700000  celldm(2)=   0.000000  celldm(3)=   7.105263
     celldm(4)=   0.000000  celldm(5)=   0.000000  celldm(6)=   0.000000

     crystal axes: (cart. coord. in units of alat)
               a(1) = (   1.000000   0.000000   0.000000 )
               a(2) = (  -0.500000   0.866025   0.000000 )
               a(3) = (   0.000000   0.000000   7.105263 )

     reciprocal axes: (cart. coord. in units 2 pi/alat)
               b(1) = (  1.000000  0.577350  0.000000 )
               b(2) = (  0.000000  1.154701  0.000000 )
               b(3) = (  0.000000  0.000000  0.140741 )

     PseudoPot. # 1 for C  read from file:
     /home/yhkim/qe-6.7/pseudo/ONCV1/1.2/C_ONCV_PBE-1.2.upf
     MD5 check sum: 1a5f83a7b1f58d24996abe00ed223ac6
     Pseudo is Norm-conserving, Zval =  4.0
     Generated using ONCVPSP code by D. R. Hamann
     Using radial grid of  602 points,  4 beta functions with:
                l(1) =   0
                l(2) =   0
                l(3) =   1
                l(4) =   1

     atomic species   valence    mass     pseudopotential
        C              4.00    12.01070     C ( 1.00)

     24 Sym. Ops., with inversion, found

   Cartesian axes

     site n.     atom                  positions (alat units)
         1           C   tau(   1) = (  -0.0000000   0.5773503   3.5526316  )
         2           C   tau(   2) = (   0.5000000   0.2886751   3.5526316  )

     number of k points=    27  Methfessel-Paxton smearing, width (Ry)=  0.0100
                       cart. coord. in units 2pi/alat
        k(    1) = (   0.0000000   0.0000000   0.0000000), wk =   0.0088889
        k(    2) = (   0.0000000   0.0769800   0.0000000), wk =   0.0533333
        k(    3) = (   0.0000000   0.1539601   0.0000000), wk =   0.0533333
        k(    4) = (   0.0000000   0.2309401   0.0000000), wk =   0.0533333
        k(    5) = (   0.0000000   0.3079201   0.0000000), wk =   0.0533333
        k(    6) = (   0.0000000   0.3849002   0.0000000), wk =   0.0533333
        k(    7) = (   0.0000000   0.4618802   0.0000000), wk =   0.0533333
        k(    8) = (   0.0000000   0.5388603   0.0000000), wk =   0.0533333
        k(    9) = (   0.0666667   0.1154701   0.0000000), wk =   0.0533333
        k(   10) = (   0.0666667   0.1924501   0.0000000), wk =   0.1066667
        k(   11) = (   0.0666667   0.2694301   0.0000000), wk =   0.1066667
        k(   12) = (   0.0666667   0.3464102   0.0000000), wk =   0.1066667
        k(   13) = (   0.0666667   0.4233902   0.0000000), wk =   0.1066667
        k(   14) = (   0.0666667   0.5003702   0.0000000), wk =   0.1066667
        k(   15) = (   0.0666667   0.5773503   0.0000000), wk =   0.0533333
        k(   16) = (   0.1333333   0.2309401   0.0000000), wk =   0.0533333
        k(   17) = (   0.1333333   0.3079201   0.0000000), wk =   0.1066667
        k(   18) = (   0.1333333   0.3849002   0.0000000), wk =   0.1066667
        k(   19) = (   0.1333333   0.4618802   0.0000000), wk =   0.1066667
        k(   20) = (   0.1333333   0.5388603   0.0000000), wk =   0.1066667
        k(   21) = (   0.2000000   0.3464102   0.0000000), wk =   0.0533333
        k(   22) = (   0.2000000   0.4233902   0.0000000), wk =   0.1066667
        k(   23) = (   0.2000000   0.5003702   0.0000000), wk =   0.1066667
        k(   24) = (   0.2000000   0.5773503   0.0000000), wk =   0.0533333
        k(   25) = (   0.2666667   0.4618802   0.0000000), wk =   0.0533333
        k(   26) = (   0.2666667   0.5388603   0.0000000), wk =   0.1066667
        k(   27) = (   0.3333333   0.5773503   0.0000000), wk =   0.0177778

     Initial potential from superposition of free atoms

     starting charge    7.98607, renormalised to    8.00000

     negative rho (up, down):  1.438E-04 0.000E+00
     Starting wfcs are random

     Self-consistent Calculation

     iteration #  1     ecut=    50.00 Ry     beta= 0.70
     Davidson diagonalization with overlap
     ethr =  1.00E-02,  avg # of iterations = 12.0

     Threshold (ethr) on eigenvalues was too large:
     Diagonalizing with lowered threshold

     Davidson diagonalization with overlap
     ethr =  2.75E-04,  avg # of iterations =  6.9

     negative rho (up, down):  2.334E-05 0.000E+00

     total energy              =     -22.50086104 Ry
     estimated scf accuracy    <       0.02416660 Ry

[...]

     iteration #  3     ecut=    50.00 Ry     beta= 0.70
     Davidson diagonalization with overlap
     c_bands:  1 eigenvalues not converged
     ethr =  1.81E-05,  avg # of iterations =  7.0

[...]

     End of self-consistent calculation

          k = 0.0000 0.0000 0.0000 (  6775 PWs)   bands (ev):

   -20.7879  -9.8581  -8.3797  -8.3797  -3.8244  -0.8442  -0.4537  -0.1925

[...]

     the Fermi energy is    -5.5435 ev

!    total energy              =     -22.50234469 Ry
     estimated scf accuracy    <          5.5E-10 Ry
     smearing contrib. (-TS)   =      -0.00005015 Ry
     internal energy E=F+TS    =     -22.50229454 Ry

     The total energy is F=E-TS. E is the sum of the following terms:
     one-electron contribution =    -257.95186587 Ry
     hartree contribution      =     129.33494971 Ry
     xc contribution           =      -6.27499934 Ry
     ewald contribution        =     112.38962096 Ry

     convergence has been achieved in   6 iterations

     Forces acting on atoms (cartesian axes, Ry/au):

     atom    1 type  1   force =     0.00000000    0.00000000    0.00000000
     atom    2 type  1   force =     0.00000000    0.00000000    0.00000000

     Total force =     0.000000     Total SCF correction =     0.000000

     Computing stress (Cartesian axis) and pressure

          total   stress  (Ry/bohr**3)                   (kbar)     P=     -108.34
  -0.00107287  -0.00000000  -0.00000000         -157.83       -0.00       -0.00
  -0.00000000  -0.00107287   0.00000000           -0.00     -157.83        0.00
   0.00000000  -0.00000000  -0.00006365            0.00       -0.00       -9.36

     BFGS Geometry Optimization
     Energy error            =      0.0E+00
     Gradient error          =      0.0E+00
     Cell gradient error     =      1.1E-03

     number of scf cycles    =   1
     number of bfgs steps    =   0

     enthalpy new            =     -22.5023446897 Ry

     new trust radius        =       0.1810866524 bohr
     new conv_thr            =       0.0000000100 Ry

     new unit-cell volume =   1079.24504 a.u.^3 (   159.92762 Ang^3 )
     density =      0.24942 g/cm^3

CELL_PARAMETERS (alat=  5.70000000)
   0.973178148  -0.000000000   0.000000000
  -0.486589074   0.842796998   0.000000000
   0.000000000   0.000000000   7.105263158

ATOMIC_POSITIONS (crystal)
C             0.3333333333        0.6666666667        0.5000000000
C             0.6666666667        0.3333333333        0.5000000000

     Writing output data file ./work/LiC570.save/
     NEW-OLD atomic charge density approx. for the potential

     negative rho (up, down):  9.357E-06 0.000E+00
     extrapolated charge    7.55372, renormalised to    8.00000

[...]

     Energy error            =      6.5E-02
     Gradient error          =      0.0E+00
     Cell gradient error     =      1.1E-03

[...]

     enthalpy old            =     -22.5023446897 Ry
     enthalpy new            =     -22.5668883136 Ry

     CASE: enthalpy_new < enthalpy_old

     WARNING: bfgs curvature condition failed, Theta= 0.830
     new trust radius        =       0.1991953177 bohr
     new conv_thr            =            1.0E-10 Ry

[...]

          k =-0.0000 0.0924 0.0000 (  6843 PWs)   bands (ev):

[...]

     Writing output data file ./work/LiC570.save/
     NEW-OLD atomic charge density approx. for the potential

     negative rho (up, down):  1.523E-07 0.000E+00
     extrapolated charge    7.98795, renormalised to    8.00000

[...]

     number of scf cycles    =   8
     number of bfgs steps    =   7

     enthalpy old            =     -22.8041604251 Ry
     enthalpy new            =     -22.8041665792 Ry

     CASE: enthalpy_new < enthalpy_old

     new trust radius        =       0.0001545234 bohr
     new conv_thr            =            1.0E-10 Ry

     new unit-cell volume =    758.84413 a.u.^3 (   112.44910 Ang^3 )
     density =      0.35472 g/cm^3

[...]

ATOMIC_POSITIONS (crystal)
C             0.3333333333        0.6666666667        0.5000000000
C             0.6666666667        0.3333333333        0.5000000000

     Writing output data file ./work/LiC570.save/
     NEW-OLD atomic charge density approx. for the potential
     extrapolated charge    7.99955, renormalised to    8.00000

[...]

     Threshold (ethr) on eigenvalues was too large:
     Diagonalizing with lowered threshold

     Davidson diagonalization with overlap
     ethr =  6.89E-10,  avg # of iterations =  1.8

[...]

     Energy error            =      8.0E-09
     Gradient error          =      1.1E-26
     Cell gradient error     =      3.8E-09

     bfgs converged in   9 scf cycles and   8 bfgs steps
     (criteria: energy <  1.0E-04 Ry, force <  1.0E-08Ry/Bohr, cell <  1.0E-03kbar)

     End of BFGS Geometry Optimization

     Final enthalpy =     -22.8041665872 Ry

     File ./work/LiC570.bfgs deleted, as requested
Begin final coordinates
     new unit-cell volume =    758.84413 a.u.^3 (   112.44910 Ang^3 )
     density =      0.35472 g/cm^3

CELL_PARAMETERS (alat=  5.70000000)
   0.816034660   0.000000000   0.000000000
  -0.408017330   0.706706746   0.000000000
   0.000000000   0.000000000   7.105263158

ATOMIC_POSITIONS (crystal)
C             0.3333333333        0.6666666667        0.5000000000
C             0.6666666667        0.3333333333        0.5000000000
End final coordinates

     Writing output data file ./work/LiC570.save/

     Final scf calculation at the relaxed structure.
     The G-vectors are recalculated for the final unit cell
     Results may differ from those at the preceding step.

     bravais-lattice index     =            4
     lattice parameter (alat)  =       5.7000  a.u.
     unit-cell volume          =     758.8441 (a.u.)^3
     number of atoms/cell      =            2
     number of atomic types    =            1
     number of electrons       =         8.00
     number of Kohn-Sham states=            8
     kinetic-energy cutoff     =      50.0000  Ry
     charge density cutoff     =     200.0000  Ry
     scf convergence threshold =      1.0E-10
     mixing beta               =       0.7000
     number of iterations used =            8  plain     mixing
     press convergence thresh. =      1.0E-03
     Exchange-correlation= PBE
                           (   1   4   3   4   0   0   0)

     celldm(1)=   5.700000  celldm(2)=   0.000000  celldm(3)=   7.105263
     celldm(4)=   0.000000  celldm(5)=   0.000000  celldm(6)=   0.000000

     crystal axes: (cart. coord. in units of alat)
               a(1) = (   0.816035   0.000000   0.000000 )
               a(2) = (  -0.408017   0.706707   0.000000 )
               a(3) = (   0.000000   0.000000   7.105263 )

     reciprocal axes: (cart. coord. in units 2 pi/alat)
               b(1) = (  1.225438  0.707507  0.000000 )
               b(2) = ( -0.000000  1.415014  0.000000 )
               b(3) = (  0.000000  0.000000  0.140741 )

     PseudoPot. # 1 for C  read from file:
     /home/yhkim/qe-6.7/pseudo/ONCV1/1.2/C_ONCV_PBE-1.2.upf
     MD5 check sum: 1a5f83a7b1f58d24996abe00ed223ac6
     Pseudo is Norm-conserving, Zval =  4.0
     Generated using ONCVPSP code by D. R. Hamann
     Using radial grid of  602 points,  4 beta functions with:
                l(1) =   0
                l(2) =   0
                l(3) =   1
                l(4) =   1

     atomic species   valence    mass     pseudopotential
        C              4.00    12.01070     C ( 1.00)

     24 Sym. Ops., with inversion, found

   Cartesian axes

     site n.     atom                  positions (alat units)
         1           C   tau(   1) = (  -0.0000000   0.4711378   3.5526316  )
         2           C   tau(   2) = (   0.4080173   0.2355689   3.5526316  )

     number of k points=    27  Methfessel-Paxton smearing, width (Ry)=  0.0100
                       cart. coord. in units 2pi/alat
        k(    1) = (   0.0000000   0.0000000   0.0000000), wk =   0.0088889
        k(    2) = (  -0.0000000   0.0943343   0.0000000), wk =   0.0533333
        k(    3) = (  -0.0000000   0.1886685   0.0000000), wk =   0.0533333
        k(    4) = (  -0.0000000   0.2830028   0.0000000), wk =   0.0533333
        k(    5) = (  -0.0000000   0.3773371   0.0000000), wk =   0.0533333
        k(    6) = (  -0.0000000   0.4716714   0.0000000), wk =   0.0533333
        k(    7) = (  -0.0000000   0.5660056   0.0000000), wk =   0.0533333
        k(    8) = (  -0.0000000   0.6603399   0.0000000), wk =   0.0533333
        k(    9) = (   0.0816959   0.1415014   0.0000000), wk =   0.0533333
        k(   10) = (   0.0816959   0.2358357   0.0000000), wk =   0.1066667
        k(   11) = (   0.0816959   0.3301700   0.0000000), wk =   0.1066667
        k(   12) = (   0.0816959   0.4245042   0.0000000), wk =   0.1066667
        k(   13) = (   0.0816959   0.5188385   0.0000000), wk =   0.1066667
        k(   14) = (   0.0816959   0.6131728   0.0000000), wk =   0.1066667
        k(   15) = (   0.0816959   0.7075070   0.0000000), wk =   0.0533333
        k(   16) = (   0.1633918   0.2830028   0.0000000), wk =   0.0533333
        k(   17) = (   0.1633918   0.3773371   0.0000000), wk =   0.1066667
        k(   18) = (   0.1633918   0.4716714   0.0000000), wk =   0.1066667
        k(   19) = (   0.1633918   0.5660056   0.0000000), wk =   0.1066667
        k(   20) = (   0.1633918   0.6603399   0.0000000), wk =   0.1066667
        k(   21) = (   0.2450876   0.4245042   0.0000000), wk =   0.0533333
        k(   22) = (   0.2450876   0.5188385   0.0000000), wk =   0.1066667
        k(   23) = (   0.2450876   0.6131728   0.0000000), wk =   0.1066667
        k(   24) = (   0.2450876   0.7075070   0.0000000), wk =   0.0533333
        k(   25) = (   0.3267835   0.5660056   0.0000000), wk =   0.0533333
        k(   26) = (   0.3267835   0.6603399   0.0000000), wk =   0.1066667
        k(   27) = (   0.4084794   0.7075070   0.0000000), wk =   0.0177778

     Initial potential from superposition of free atoms

     starting charge    7.98607, renormalised to    8.00000

     negative rho (up, down):  1.134E-04 0.000E+00
     Starting wfcs are random

     Self-consistent Calculation

[...]

     negative rho (up, down):  2.855E-06 0.000E+00

[...]

     iteration #  4     ecut=    50.00 Ry     beta= 0.70
     Davidson diagonalization with overlap
     c_bands:  1 eigenvalues not converged
     ethr =  2.15E-06,  avg # of iterations =  5.7

[...]

     total energy              =     -22.79098821 Ry
     estimated scf accuracy    <          9.4E-10 Ry

     iteration #  7     ecut=    50.00 Ry     beta= 0.70
     Davidson diagonalization with overlap
     ethr =  1.17E-11,  avg # of iterations =  3.0

     End of self-consistent calculation

[...]

          k =-0.0000 0.6603 0.0000 (  4556 PWs)   bands (ev):

[...]

          k = 0.4085 0.7075 0.0000 (  4521 PWs)   bands (ev):

   -16.8766 -16.8766 -14.8644  -4.2271  -4.2271   6.4043   8.6918   8.6919

     the Fermi energy is    -4.2271 ev

!    total energy              =     -22.79098821 Ry
     estimated scf accuracy    <          1.2E-11 Ry
     smearing contrib. (-TS)   =      -0.00005015 Ry
     internal energy E=F+TS    =     -22.79093806 Ry

     The total energy is F=E-TS. E is the sum of the following terms:
     one-electron contribution =    -388.19474406 Ry
     hartree contribution      =     194.71947656 Ry
     xc contribution           =      -7.01764612 Ry
     ewald contribution        =     177.70197557 Ry

     convergence has been achieved in   7 iterations

     Forces acting on atoms (cartesian axes, Ry/au):

     atom    1 type  1   force =     0.00000000    0.00000000    0.00000000
     atom    2 type  1   force =     0.00000000    0.00000000    0.00000000

     Total force =     0.000000     Total SCF correction =     0.000000

     Computing stress (Cartesian axis) and pressure

          total   stress  (Ry/bohr**3)                   (kbar)     P=      -13.35
  -0.00008211   0.00000000   0.00000000          -12.08        0.00        0.00
   0.00000000  -0.00008211   0.00000000            0.00      -12.08        0.00
   0.00000000   0.00000000  -0.00010807            0.00        0.00      -15.90

     Writing output data file ./work/LiC570.save/

     General routines

     Parallel routines

   This run was terminated on:  15:49:35  19Jan2024

   JOB DONE.