     Program PWSCF v.6.7MaX starts on 19Jan2024 at 14:17:51

     R & G space division:  proc/nbgrp/npool/nimage =      32
     Waiting for input...
     Reading input from standard input

     Current dimensions of program PWSCF are:
     Max number of different atomic species (ntypx) = 10
     Max number of k-points (npk) =  40000
     Max angular momentum in pseudopotentials (lmaxx) =  3
     Message from routine read_pp_mesh:
     mesh size missing, using the one in header

     Subspace diagonalization in iterative solution of the eigenvalue problem:
     a serial algorithm will be used

     bravais-lattice index     =            4
     lattice parameter (alat)  =       4.8500  a.u.
     unit-cell volume          =     825.0288 (a.u.)^3
     number of atoms/cell      =            2
     number of atomic types    =            1
     number of electrons       =         8.00
     number of Kohn-Sham states=            8
     kinetic-energy cutoff     =      50.0000  Ry
     charge density cutoff     =     200.0000  Ry
     scf convergence threshold =      1.0E-08
     mixing beta               =       0.7000
     number of iterations used =            8  plain     mixing
     energy convergence thresh.=      1.0E-04
     force convergence thresh. =      1.0E-08
     press convergence thresh. =      1.0E-03
     Exchange-correlation= PBE
                           (   1   4   3   4   0   0   0)
     nstep                     =           50

     celldm(1)=   4.850000  celldm(2)=   0.000000  celldm(3)=   8.350515
     celldm(4)=   0.000000  celldm(5)=   0.000000  celldm(6)=   0.000000

     crystal axes: (cart. coord. in units of alat)
               a(1) = (   1.000000   0.000000   0.000000 )
               a(2) = (  -0.500000   0.866025   0.000000 )
               a(3) = (   0.000000   0.000000   8.350515 )

     reciprocal axes: (cart. coord. in units 2 pi/alat)
               b(1) = (  1.000000  0.577350  0.000000 )
               b(2) = (  0.000000  1.154701  0.000000 )
               b(3) = (  0.000000  0.000000  0.119753 )

     PseudoPot. # 1 for C  read from file:
     /home/yhkim/qe-6.7/pseudo/ONCV1/1.2/C_ONCV_PBE-1.2.upf
     MD5 check sum: 1a5f83a7b1f58d24996abe00ed223ac6
     Pseudo is Norm-conserving, Zval =  4.0
     Generated using ONCVPSP code by D. R. Hamann
     Using radial grid of  602 points,  4 beta functions with:
                l(1) =   0
                l(2) =   0
                l(3) =   1
                l(4) =   1

     atomic species   valence    mass     pseudopotential
        C              4.00    12.01070     C ( 1.00)

     24 Sym. Ops., with inversion, found

   Cartesian axes

     site n.     atom                  positions (alat units)
         1           C   tau(   1) = (  -0.0000000   0.5773503   4.1752577  )
         2           C   tau(   2) = (   0.5000000   0.2886751   4.1752577  )

     number of k points=    27  Methfessel-Paxton smearing, width (Ry)=  0.0100
                       cart. coord. in units 2pi/alat
        k(    1) = (   0.0000000   0.0000000   0.0000000), wk =   0.0088889
        k(    2) = (   0.0000000   0.0769800   0.0000000), wk =   0.0533333
        k(    3) = (   0.0000000   0.1539601   0.0000000), wk =   0.0533333
        k(    4) = (   0.0000000   0.2309401   0.0000000), wk =   0.0533333
        k(    5) = (   0.0000000   0.3079201   0.0000000), wk =   0.0533333
        k(    6) = (   0.0000000   0.3849002   0.0000000), wk =   0.0533333
        k(    7) = (   0.0000000   0.4618802   0.0000000), wk =   0.0533333
        k(    8) = (   0.0000000   0.5388603   0.0000000), wk =   0.0533333
        k(    9) = (   0.0666667   0.1154701   0.0000000), wk =   0.0533333
        k(   10) = (   0.0666667   0.1924501   0.0000000), wk =   0.1066667
        k(   11) = (   0.0666667   0.2694301   0.0000000), wk =   0.1066667
        k(   12) = (   0.0666667   0.3464102   0.0000000), wk =   0.1066667
        k(   13) = (   0.0666667   0.4233902   0.0000000), wk =   0.1066667
        k(   14) = (   0.0666667   0.5003702   0.0000000), wk =   0.1066667
        k(   15) = (   0.0666667   0.5773503   0.0000000), wk =   0.0533333
        k(   16) = (   0.1333333   0.2309401   0.0000000), wk =   0.0533333
        k(   17) = (   0.1333333   0.3079201   0.0000000), wk =   0.1066667
        k(   18) = (   0.1333333   0.3849002   0.0000000), wk =   0.1066667
        k(   19) = (   0.1333333   0.4618802   0.0000000), wk =   0.1066667
        k(   20) = (   0.1333333   0.5388603   0.0000000), wk =   0.1066667
        k(   21) = (   0.2000000   0.3464102   0.0000000), wk =   0.0533333
        k(   22) = (   0.2000000   0.4233902   0.0000000), wk =   0.1066667
        k(   23) = (   0.2000000   0.5003702   0.0000000), wk =   0.1066667
        k(   24) = (   0.2000000   0.5773503   0.0000000), wk =   0.0533333
        k(   25) = (   0.2666667   0.4618802   0.0000000), wk =   0.0533333
        k(   26) = (   0.2666667   0.5388603   0.0000000), wk =   0.1066667
        k(   27) = (   0.3333333   0.5773503   0.0000000), wk =   0.0177778

     Initial potential from superposition of free atoms

     starting charge    7.98607, renormalised to    8.00000

     negative rho (up, down):  1.195E-04 0.000E+00
     Starting wfcs are random

     Self-consistent Calculation

     iteration #  1     ecut=    50.00 Ry     beta= 0.70
     Davidson diagonalization with overlap
     ethr =  1.00E-02,  avg # of iterations = 12.2

     negative rho (up, down):  1.248E-07 0.000E+00

     total energy              =     -22.75301846 Ry
     estimated scf accuracy    <       0.11547399 Ry

[...]

     iteration #  3     ecut=    50.00 Ry     beta= 0.70
     Davidson diagonalization with overlap
     c_bands:  1 eigenvalues not converged
     ethr =  2.48E-05,  avg # of iterations = 10.3

[...]

     End of self-consistent calculation

          k = 0.0000 0.0000 0.0000 (  5035 PWs)   bands (ev):

   -23.1743 -11.4218  -7.6722  -7.6722  -0.9549  -0.1994   0.5973   0.9505

[...]

     the Fermi energy is    -4.5682 ev

!    total energy              =     -22.77611085 Ry
     estimated scf accuracy    <          5.5E-10 Ry
     smearing contrib. (-TS)   =      -0.00005015 Ry
     internal energy E=F+TS    =     -22.77606070 Ry

     The total energy is F=E-TS. E is the sum of the following terms:
     one-electron contribution =    -356.73873925 Ry
     hartree contribution      =     178.91440606 Ry
     xc contribution           =      -6.84320406 Ry
     ewald contribution        =     161.89147655 Ry

     convergence has been achieved in   6 iterations

     Forces acting on atoms (cartesian axes, Ry/au):

     atom    1 type  1   force =     0.00000000    0.00000000    0.00000000
     atom    2 type  1   force =     0.00000000    0.00000000    0.00000000

     Total force =     0.000000     Total SCF correction =     0.000000

     Computing stress (Cartesian axis) and pressure

          total   stress  (Ry/bohr**3)                   (kbar)     P=      -56.67
  -0.00052992  -0.00000000   0.00000000          -77.95       -0.00        0.00
  -0.00000000  -0.00052992   0.00000000           -0.00      -77.95        0.00
   0.00000000   0.00000000  -0.00009583            0.00        0.00      -14.10

     BFGS Geometry Optimization
     Energy error            =      0.0E+00
     Gradient error          =      0.0E+00
     Cell gradient error     =      5.3E-04

     number of scf cycles    =   1
     number of bfgs steps    =   0

     enthalpy new            =     -22.7761108455 Ry

     new trust radius        =       0.0761058746 bohr
     new conv_thr            =       0.0000000100 Ry

     new unit-cell volume =    803.31352 a.u.^3 (   119.03878 Ang^3 )
     density =      0.33509 g/cm^3

CELL_PARAMETERS (alat=  4.85000000)
   0.986751899  -0.000000000   0.000000000
  -0.493375950   0.854552212   0.000000000
   0.000000000   0.000000000   8.350515464

ATOMIC_POSITIONS (crystal)
C             0.3333333333        0.6666666667        0.5000000000
C             0.6666666667        0.3333333333        0.5000000000

     Writing output data file ./work/LiC485.save/
     NEW-OLD atomic charge density approx. for the potential

     negative rho (up, down):  6.089E-06 0.000E+00
     extrapolated charge    7.78412, renormalised to    8.00000

[...]

     Energy error            =      1.0E-02
     Gradient error          =      1.7E-26
     Cell gradient error     =      4.0E-04

[...]

     enthalpy old            =     -22.7761108455 Ry
     enthalpy new            =     -22.7862026974 Ry

     CASE: enthalpy_new < enthalpy_old

[...]

          k =-0.0000 0.0792 0.0000 (  5011 PWs)   bands (ev):

[...]

     negative rho (up, down):  3.256E-07 0.000E+00
     extrapolated charge    8.03783, renormalised to    8.00000

[...]

     Writing output data file ./work/LiC485.save/
     NEW-OLD atomic charge density approx. for the potential
     extrapolated charge    7.99773, renormalised to    8.00000

[...]

     Threshold (ethr) on eigenvalues was too large:
     Diagonalizing with lowered threshold

     Davidson diagonalization with overlap
     ethr =  1.79E-08,  avg # of iterations =  1.0

[...]

     CASE: enthalpy_new < enthalpy_old

     small trust_radius: resetting bfgs history

     new trust radius        =       0.0000018187 bohr
     new conv_thr            =            1.0E-10 Ry

[...]

     Writing output data file ./work/LiC485.save/
     NEW-OLD atomic charge density approx. for the potential
     extrapolated charge    7.99999, renormalised to    8.00000

[...]

     Energy error            =      2.9E-11
     Gradient error          =      0.0E+00
     Cell gradient error     =      1.7E-08

     number of scf cycles    =   7
     number of bfgs steps    =   6

     enthalpy old            =     -22.7966941415 Ry
     enthalpy new            =     -22.7966941414 Ry

     CASE: enthalpy_new > enthalpy_old

     new trust radius        =       0.0000001707 bohr

     trust_radius < trust_radius_min

     resetting bfgs history

     Message from routine bfgs:
     history already reset at previous step: stopping
     new conv_thr            =            1.0E-10 Ry

     new unit-cell volume =    753.19177 a.u.^3 (   111.61151 Ang^3 )
     density =      0.35739 g/cm^3

[...]

ATOMIC_POSITIONS (crystal)
C             0.3333333333        0.6666666667        0.5000000000
C             0.6666666667        0.3333333333        0.5000000000

     Writing output data file ./work/LiC485.save/
     NEW-OLD atomic charge density approx. for the potential

[...]

     Threshold (ethr) on eigenvalues was too large:
     Diagonalizing with lowered threshold

     Davidson diagonalization with overlap
     ethr =  4.64E-13,  avg # of iterations =  1.8

[...]

     Message from routine bfgs:
     history already reset at previous step: stopping
     Energy error            =      7.7E-12
     Gradient error          =      0.0E+00
     Cell gradient error     =      7.9E-09

     bfgs converged in   8 scf cycles and   6 bfgs steps
     (criteria: energy <  1.0E-04 Ry, force <  1.0E-08Ry/Bohr, cell <  1.0E-03kbar)

     End of BFGS Geometry Optimization

     Final enthalpy =     -22.7966941415 Ry

     File ./work/LiC485.bfgs deleted, as requested
Begin final coordinates
     new unit-cell volume =    753.19177 a.u.^3 (   111.61151 Ang^3 )
     density =      0.35739 g/cm^3

CELL_PARAMETERS (alat=  4.85000000)
   0.955472558   0.000000000   0.000000000
  -0.477736279   0.827463508   0.000000000
   0.000000000   0.000000000   8.350515464

ATOMIC_POSITIONS (crystal)
C             0.3333333333        0.6666666667        0.5000000000
C             0.6666666667        0.3333333333        0.5000000000
End final coordinates

     Writing output data file ./work/LiC485.save/

     Final scf calculation at the relaxed structure.
     The G-vectors are recalculated for the final unit cell
     Results may differ from those at the preceding step.

     bravais-lattice index     =            4
     lattice parameter (alat)  =       4.8500  a.u.
     unit-cell volume          =     753.1918 (a.u.)^3
     number of atoms/cell      =            2
     number of atomic types    =            1
     number of electrons       =         8.00
     number of Kohn-Sham states=            8
     kinetic-energy cutoff     =      50.0000  Ry
     charge density cutoff     =     200.0000  Ry
     scf convergence threshold =      1.0E-10
     mixing beta               =       0.7000
     number of iterations used =            8  plain     mixing
     press convergence thresh. =      1.0E-03
     Exchange-correlation= PBE
                           (   1   4   3   4   0   0   0)

     celldm(1)=   4.850000  celldm(2)=   0.000000  celldm(3)=   8.350515
     celldm(4)=   0.000000  celldm(5)=   0.000000  celldm(6)=   0.000000

     crystal axes: (cart. coord. in units of alat)
               a(1) = (   0.955473   0.000000   0.000000 )
               a(2) = (  -0.477736   0.827464   0.000000 )
               a(3) = (   0.000000   0.000000   8.350515 )

     reciprocal axes: (cart. coord. in units 2 pi/alat)
               b(1) = (  1.046603  0.604256  0.000000 )
               b(2) = ( -0.000000  1.208513  0.000000 )
               b(3) = (  0.000000  0.000000  0.119753 )

     PseudoPot. # 1 for C  read from file:
     /home/yhkim/qe-6.7/pseudo/ONCV1/1.2/C_ONCV_PBE-1.2.upf
     MD5 check sum: 1a5f83a7b1f58d24996abe00ed223ac6
     Pseudo is Norm-conserving, Zval =  4.0
     Generated using ONCVPSP code by D. R. Hamann
     Using radial grid of  602 points,  4 beta functions with:
                l(1) =   0
                l(2) =   0
                l(3) =   1
                l(4) =   1

     atomic species   valence    mass     pseudopotential
        C              4.00    12.01070     C ( 1.00)

     24 Sym. Ops., with inversion, found

   Cartesian axes

     site n.     atom                  positions (alat units)
         1           C   tau(   1) = (  -0.0000000   0.5516423   4.1752577  )
         2           C   tau(   2) = (   0.4777363   0.2758212   4.1752577  )

     number of k points=    27  Methfessel-Paxton smearing, width (Ry)=  0.0100
                       cart. coord. in units 2pi/alat
        k(    1) = (   0.0000000   0.0000000   0.0000000), wk =   0.0088889
        k(    2) = (  -0.0000000   0.0805675   0.0000000), wk =   0.0533333
        k(    3) = (  -0.0000000   0.1611350   0.0000000), wk =   0.0533333
        k(    4) = (  -0.0000000   0.2417025   0.0000000), wk =   0.0533333
        k(    5) = (  -0.0000000   0.3222700   0.0000000), wk =   0.0533333
        k(    6) = (  -0.0000000   0.4028375   0.0000000), wk =   0.0533333
        k(    7) = (  -0.0000000   0.4834050   0.0000000), wk =   0.0533333
        k(    8) = (  -0.0000000   0.5639725   0.0000000), wk =   0.0533333
        k(    9) = (   0.0697735   0.1208513   0.0000000), wk =   0.0533333
        k(   10) = (   0.0697735   0.2014188   0.0000000), wk =   0.1066667
        k(   11) = (   0.0697735   0.2819863   0.0000000), wk =   0.1066667
        k(   12) = (   0.0697735   0.3625538   0.0000000), wk =   0.1066667
        k(   13) = (   0.0697735   0.4431213   0.0000000), wk =   0.1066667
        k(   14) = (   0.0697735   0.5236888   0.0000000), wk =   0.1066667
        k(   15) = (   0.0697735   0.6042563   0.0000000), wk =   0.0533333
        k(   16) = (   0.1395470   0.2417025   0.0000000), wk =   0.0533333
        k(   17) = (   0.1395470   0.3222700   0.0000000), wk =   0.1066667
        k(   18) = (   0.1395470   0.4028375   0.0000000), wk =   0.1066667
        k(   19) = (   0.1395470   0.4834050   0.0000000), wk =   0.1066667
        k(   20) = (   0.1395470   0.5639725   0.0000000), wk =   0.1066667
        k(   21) = (   0.2093205   0.3625538   0.0000000), wk =   0.0533333
        k(   22) = (   0.2093205   0.4431213   0.0000000), wk =   0.1066667
        k(   23) = (   0.2093205   0.5236888   0.0000000), wk =   0.1066667
        k(   24) = (   0.2093205   0.6042563   0.0000000), wk =   0.0533333
        k(   25) = (   0.2790940   0.4834050   0.0000000), wk =   0.0533333
        k(   26) = (   0.2790940   0.5639725   0.0000000), wk =   0.1066667
        k(   27) = (   0.3488675   0.6042563   0.0000000), wk =   0.0177778

     Initial potential from superposition of free atoms

     starting charge    7.98607, renormalised to    8.00000

     negative rho (up, down):  1.159E-04 0.000E+00
     Starting wfcs are random

     Self-consistent Calculation

     iteration #  1     ecut=    50.00 Ry     beta= 0.70
     Davidson diagonalization with overlap
     c_bands:  2 eigenvalues not converged
     c_bands:  3 eigenvalues not converged
     c_bands:  5 eigenvalues not converged
     c_bands:  5 eigenvalues not converged
     c_bands:  4 eigenvalues not converged
     c_bands:  4 eigenvalues not converged
     c_bands:  3 eigenvalues not converged
     c_bands:  2 eigenvalues not converged
     c_bands:  3 eigenvalues not converged
     c_bands:  3 eigenvalues not converged
     c_bands:  5 eigenvalues not converged
     c_bands:  4 eigenvalues not converged
     c_bands:  4 eigenvalues not converged
     c_bands:  3 eigenvalues not converged
     c_bands:  2 eigenvalues not converged
     c_bands:  4 eigenvalues not converged
     c_bands:  4 eigenvalues not converged
     c_bands:  4 eigenvalues not converged
     c_bands:  4 eigenvalues not converged
     c_bands:  3 eigenvalues not converged
     c_bands:  4 eigenvalues not converged
     c_bands:  3 eigenvalues not converged
     c_bands:  3 eigenvalues not converged
     c_bands:  3 eigenvalues not converged
     c_bands:  4 eigenvalues not converged
     c_bands:  3 eigenvalues not converged
     c_bands:  3 eigenvalues not converged
     ethr =  1.00E-06,  avg # of iterations = 23.0

[...]

     negative rho (up, down):  3.007E-06 0.000E+00

[...]

     total energy              =     -22.79060280 Ry
     estimated scf accuracy    <          8.4E-10 Ry

     iteration #  7     ecut=    50.00 Ry     beta= 0.70
     Davidson diagonalization with overlap
     ethr =  1.05E-11,  avg # of iterations =  3.1

     End of self-consistent calculation

[...]

          k =-0.0000 0.5640 0.0000 (  4521 PWs)   bands (ev):

[...]

          k = 0.3489 0.6043 0.0000 (  4473 PWs)   bands (ev):

   -16.8771 -16.8771 -14.9154  -4.1949  -4.1949   6.4538   8.8010   8.8010

     the Fermi energy is    -4.1949 ev

!    total energy              =     -22.79060280 Ry
     estimated scf accuracy    <          1.3E-11 Ry
     smearing contrib. (-TS)   =      -0.00005015 Ry
     internal energy E=F+TS    =     -22.79055265 Ry

     The total energy is F=E-TS. E is the sum of the following terms:
     one-electron contribution =    -391.14177740 Ry
     hartree contribution      =     196.20059052 Ry
     xc contribution           =      -7.03376689 Ry
     ewald contribution        =     179.18440111 Ry

     convergence has been achieved in   7 iterations

     Forces acting on atoms (cartesian axes, Ry/au):

     atom    1 type  1   force =     0.00000000    0.00000000    0.00000000
     atom    2 type  1   force =     0.00000000    0.00000000    0.00000000

     Total force =     0.000000     Total SCF correction =     0.000000

     Computing stress (Cartesian axis) and pressure

          total   stress  (Ry/bohr**3)                   (kbar)     P=       -8.68
  -0.00003383  -0.00000000   0.00000000           -4.98       -0.00        0.00
   0.00000000  -0.00003383   0.00000000            0.00       -4.98        0.00
   0.00000000   0.00000000  -0.00010931            0.00        0.00      -16.08

     Writing output data file ./work/LiC485.save/

     General routines

     Parallel routines

   This run was terminated on:  14:18: 5  19Jan2024

   JOB DONE.