     Program PWSCF v.6.7MaX starts on 19Jan2024 at 14:15:19

     R & G space division:  proc/nbgrp/npool/nimage =      32
     Waiting for input...
     Reading input from standard input

     Current dimensions of program PWSCF are:
     Max number of different atomic species (ntypx) = 10
     Max number of k-points (npk) =  40000
     Max angular momentum in pseudopotentials (lmaxx) =  3
     Message from routine read_pp_mesh:
     mesh size missing, using the one in header

     Subspace diagonalization in iterative solution of the eigenvalue problem:
     a serial algorithm will be used

     bravais-lattice index     =            4
     lattice parameter (alat)  =       4.7400  a.u.
     unit-cell volume          =     788.0293 (a.u.)^3
     number of atoms/cell      =            2
     number of atomic types    =            1
     number of electrons       =         8.00
     number of Kohn-Sham states=            8
     kinetic-energy cutoff     =      50.0000  Ry
     charge density cutoff     =     200.0000  Ry
     scf convergence threshold =      1.0E-08
     mixing beta               =       0.7000
     number of iterations used =            8  plain     mixing
     energy convergence thresh.=      1.0E-04
     force convergence thresh. =      1.0E-08
     press convergence thresh. =      1.0E-03
     Exchange-correlation= PBE
                           (   1   4   3   4   0   0   0)
     nstep                     =           50

     celldm(1)=   4.740000  celldm(2)=   0.000000  celldm(3)=   8.544304
     celldm(4)=   0.000000  celldm(5)=   0.000000  celldm(6)=   0.000000

     crystal axes: (cart. coord. in units of alat)
               a(1) = (   1.000000   0.000000   0.000000 )
               a(2) = (  -0.500000   0.866025   0.000000 )
               a(3) = (   0.000000   0.000000   8.544304 )

     reciprocal axes: (cart. coord. in units 2 pi/alat)
               b(1) = (  1.000000  0.577350  0.000000 )
               b(2) = (  0.000000  1.154701  0.000000 )
               b(3) = (  0.000000  0.000000  0.117037 )

     PseudoPot. # 1 for C  read from file:
     /home/yhkim/qe-6.7/pseudo/ONCV1/1.2/C_ONCV_PBE-1.2.upf
     MD5 check sum: 1a5f83a7b1f58d24996abe00ed223ac6
     Pseudo is Norm-conserving, Zval =  4.0
     Generated using ONCVPSP code by D. R. Hamann
     Using radial grid of  602 points,  4 beta functions with:
                l(1) =   0
                l(2) =   0
                l(3) =   1
                l(4) =   1

     atomic species   valence    mass     pseudopotential
        C              4.00    12.01070     C ( 1.00)

     24 Sym. Ops., with inversion, found

   Cartesian axes

     site n.     atom                  positions (alat units)
         1           C   tau(   1) = (  -0.0000000   0.5773503   4.2721519  )
         2           C   tau(   2) = (   0.5000000   0.2886751   4.2721519  )

     number of k points=    27  Methfessel-Paxton smearing, width (Ry)=  0.0100
                       cart. coord. in units 2pi/alat
        k(    1) = (   0.0000000   0.0000000   0.0000000), wk =   0.0088889
        k(    2) = (   0.0000000   0.0769800   0.0000000), wk =   0.0533333
        k(    3) = (   0.0000000   0.1539601   0.0000000), wk =   0.0533333
        k(    4) = (   0.0000000   0.2309401   0.0000000), wk =   0.0533333
        k(    5) = (   0.0000000   0.3079201   0.0000000), wk =   0.0533333
        k(    6) = (   0.0000000   0.3849002   0.0000000), wk =   0.0533333
        k(    7) = (   0.0000000   0.4618802   0.0000000), wk =   0.0533333
        k(    8) = (   0.0000000   0.5388603   0.0000000), wk =   0.0533333
        k(    9) = (   0.0666667   0.1154701   0.0000000), wk =   0.0533333
        k(   10) = (   0.0666667   0.1924501   0.0000000), wk =   0.1066667
        k(   11) = (   0.0666667   0.2694301   0.0000000), wk =   0.1066667
        k(   12) = (   0.0666667   0.3464102   0.0000000), wk =   0.1066667
        k(   13) = (   0.0666667   0.4233902   0.0000000), wk =   0.1066667
        k(   14) = (   0.0666667   0.5003702   0.0000000), wk =   0.1066667
        k(   15) = (   0.0666667   0.5773503   0.0000000), wk =   0.0533333
        k(   16) = (   0.1333333   0.2309401   0.0000000), wk =   0.0533333
        k(   17) = (   0.1333333   0.3079201   0.0000000), wk =   0.1066667
        k(   18) = (   0.1333333   0.3849002   0.0000000), wk =   0.1066667
        k(   19) = (   0.1333333   0.4618802   0.0000000), wk =   0.1066667
        k(   20) = (   0.1333333   0.5388603   0.0000000), wk =   0.1066667
        k(   21) = (   0.2000000   0.3464102   0.0000000), wk =   0.0533333
        k(   22) = (   0.2000000   0.4233902   0.0000000), wk =   0.1066667
        k(   23) = (   0.2000000   0.5003702   0.0000000), wk =   0.1066667
        k(   24) = (   0.2000000   0.5773503   0.0000000), wk =   0.0533333
        k(   25) = (   0.2666667   0.4618802   0.0000000), wk =   0.0533333
        k(   26) = (   0.2666667   0.5388603   0.0000000), wk =   0.1066667
        k(   27) = (   0.3333333   0.5773503   0.0000000), wk =   0.0177778

     Initial potential from superposition of free atoms

     starting charge    7.98607, renormalised to    8.00000

     negative rho (up, down):  1.177E-04 0.000E+00
     Starting wfcs are random

     Self-consistent Calculation

     iteration #  1     ecut=    50.00 Ry     beta= 0.70
     Davidson diagonalization with overlap
     ethr =  1.00E-02,  avg # of iterations = 12.0

     negative rho (up, down):  1.309E-07 0.000E+00

     total energy              =     -22.76372578 Ry
     estimated scf accuracy    <       0.14588094 Ry

[...]

     iteration #  4     ecut=    50.00 Ry     beta= 0.70
     Davidson diagonalization with overlap
     c_bands:  1 eigenvalues not converged
     c_bands:  1 eigenvalues not converged
     ethr =  1.67E-06,  avg # of iterations =  6.2

[...]

     End of self-consistent calculation

          k = 0.0000 0.0000 0.0000 (  4771 PWs)   bands (ev):

   -23.5269 -11.6767  -7.4872  -7.4872  -0.9695  -0.2015   0.5907   0.9450

[...]

     the Fermi energy is    -4.3878 ev

!    total energy              =     -22.78833800 Ry
     estimated scf accuracy    <          1.5E-09 Ry
     smearing contrib. (-TS)   =      -0.00005015 Ry
     internal energy E=F+TS    =     -22.78828785 Ry

     The total energy is F=E-TS. E is the sum of the following terms:
     one-electron contribution =    -373.66138050 Ry
     hartree contribution      =     187.41633090 Ry
     xc contribution           =      -6.93758915 Ry
     ewald contribution        =     170.39435090 Ry

     convergence has been achieved in   6 iterations

     Forces acting on atoms (cartesian axes, Ry/au):

     atom    1 type  1   force =     0.00000000    0.00000000    0.00000000
     atom    2 type  1   force =     0.00000000    0.00000000    0.00000000

     Total force =     0.000000     Total SCF correction =     0.000000

     Computing stress (Cartesian axis) and pressure

          total   stress  (Ry/bohr**3)                   (kbar)     P=      -34.95
  -0.00030515  -0.00000000   0.00000000          -44.89       -0.00        0.00
  -0.00000000  -0.00030515   0.00000000           -0.00      -44.89        0.00
   0.00000000   0.00000000  -0.00010240            0.00        0.00      -15.06

     BFGS Geometry Optimization
     Energy error            =      0.0E+00
     Gradient error          =      0.0E+00
     Cell gradient error     =      3.1E-04

     number of scf cycles    =   1
     number of bfgs steps    =   0

     enthalpy new            =     -22.7883379987 Ry

     new trust radius        =       0.0428303514 bohr
     new conv_thr            =       0.0000000100 Ry

     new unit-cell volume =    776.05184 a.u.^3 (   114.99902 Ang^3 )
     density =      0.34686 g/cm^3

CELL_PARAMETERS (alat=  4.74000000)
   0.992371301  -0.000000000   0.000000000
  -0.496185651   0.859418757   0.000000000
   0.000000000   0.000000000   8.544303797

ATOMIC_POSITIONS (crystal)
C             0.3333333333        0.6666666667        0.5000000000
C             0.6666666667        0.3333333333        0.5000000000

     Writing output data file ./work/LiC474.save/
     NEW-OLD atomic charge density approx. for the potential

     negative rho (up, down):  3.591E-06 0.000E+00
     extrapolated charge    7.87674, renormalised to    8.00000

[...]

     Energy error            =      3.1E-03
     Gradient error          =      0.0E+00
     Cell gradient error     =      2.1E-04

[...]

     enthalpy old            =     -22.7883379987 Ry
     enthalpy new            =     -22.7914480045 Ry

     CASE: enthalpy_new < enthalpy_old

[...]

     Writing output data file ./work/LiC474.save/
     NEW-OLD atomic charge density approx. for the potential

     negative rho (up, down):  1.524E-06 0.000E+00
     extrapolated charge    7.87205, renormalised to    8.00000

[...]

     Writing output data file ./work/LiC474.save/
     NEW-OLD atomic charge density approx. for the potential
     extrapolated charge    8.00734, renormalised to    8.00000

[...]

     small trust_radius: resetting bfgs history

[...]

     Threshold (ethr) on eigenvalues was too large:
     Diagonalizing with lowered threshold

     Davidson diagonalization with overlap
     ethr =  1.38E-11,  avg # of iterations =  1.8

[...]

     Energy error            =      9.1E-10
     Gradient error          =      0.0E+00
     Cell gradient error     =      1.1E-07

     number of scf cycles    =   6
     number of bfgs steps    =   5

     enthalpy old            =     -22.7941201009 Ry
     enthalpy new            =     -22.7941201018 Ry

     CASE: enthalpy_new < enthalpy_old

     Message from routine bfgs:
     history already reset at previous step: stopping
     small trust_radius: resetting bfgs history

     new trust radius        =       0.0000151156 bohr
     new conv_thr            =            1.0E-10 Ry

     new unit-cell volume =    751.63166 a.u.^3 (   111.38032 Ang^3 )
     density =      0.35813 g/cm^3

[...]

ATOMIC_POSITIONS (crystal)
C             0.3333333333        0.6666666667        0.5000000000
C             0.6666666667        0.3333333333        0.5000000000

     Writing output data file ./work/LiC474.save/
     NEW-OLD atomic charge density approx. for the potential
     extrapolated charge    7.99996, renormalised to    8.00000

[...]

     Threshold (ethr) on eigenvalues was too large:
     Diagonalizing with lowered threshold

     Davidson diagonalization with overlap
     ethr =  8.33E-12,  avg # of iterations =  1.9

[...]

     Message from routine bfgs:
     history already reset at previous step: stopping
     Energy error            =      3.8E-10
     Gradient error          =      0.0E+00
     Cell gradient error     =      7.1E-08

     bfgs converged in   7 scf cycles and   6 bfgs steps
     (criteria: energy <  1.0E-04 Ry, force <  1.0E-08Ry/Bohr, cell <  1.0E-03kbar)

     End of BFGS Geometry Optimization

     Final enthalpy =     -22.7941201022 Ry

     File ./work/LiC474.bfgs deleted, as requested
Begin final coordinates
     new unit-cell volume =    751.63166 a.u.^3 (   111.38032 Ang^3 )
     density =      0.35813 g/cm^3

CELL_PARAMETERS (alat=  4.74000000)
   0.976632930  -0.000000000   0.000000000
  -0.488316465   0.845788928   0.000000000
   0.000000000   0.000000000   8.544303797

ATOMIC_POSITIONS (crystal)
C             0.3333333333        0.6666666667        0.5000000000
C             0.6666666667        0.3333333333        0.5000000000
End final coordinates

     Writing output data file ./work/LiC474.save/

     Final scf calculation at the relaxed structure.
     The G-vectors are recalculated for the final unit cell
     Results may differ from those at the preceding step.

     bravais-lattice index     =            4
     lattice parameter (alat)  =       4.7400  a.u.
     unit-cell volume          =     751.6317 (a.u.)^3
     number of atoms/cell      =            2
     number of atomic types    =            1
     number of electrons       =         8.00
     number of Kohn-Sham states=            8
     kinetic-energy cutoff     =      50.0000  Ry
     charge density cutoff     =     200.0000  Ry
     scf convergence threshold =      1.0E-10
     mixing beta               =       0.7000
     number of iterations used =            8  plain     mixing
     press convergence thresh. =      1.0E-03
     Exchange-correlation= PBE
                           (   1   4   3   4   0   0   0)

     celldm(1)=   4.740000  celldm(2)=   0.000000  celldm(3)=   8.544304
     celldm(4)=   0.000000  celldm(5)=   0.000000  celldm(6)=   0.000000

     crystal axes: (cart. coord. in units of alat)
               a(1) = (   0.976633  -0.000000   0.000000 )
               a(2) = (  -0.488316   0.845789   0.000000 )
               a(3) = (   0.000000   0.000000   8.544304 )

     reciprocal axes: (cart. coord. in units 2 pi/alat)
               b(1) = (  1.023926  0.591164  0.000000 )
               b(2) = (  0.000000  1.182328  0.000000 )
               b(3) = (  0.000000  0.000000  0.117037 )

     PseudoPot. # 1 for C  read from file:
     /home/yhkim/qe-6.7/pseudo/ONCV1/1.2/C_ONCV_PBE-1.2.upf
     MD5 check sum: 1a5f83a7b1f58d24996abe00ed223ac6
     Pseudo is Norm-conserving, Zval =  4.0
     Generated using ONCVPSP code by D. R. Hamann
     Using radial grid of  602 points,  4 beta functions with:
                l(1) =   0
                l(2) =   0
                l(3) =   1
                l(4) =   1

     atomic species   valence    mass     pseudopotential
        C              4.00    12.01070     C ( 1.00)

     24 Sym. Ops., with inversion, found

   Cartesian axes

     site n.     atom                  positions (alat units)
         1           C   tau(   1) = (  -0.0000000   0.5638593   4.2721519  )
         2           C   tau(   2) = (   0.4883165   0.2819296   4.2721519  )

     number of k points=    27  Methfessel-Paxton smearing, width (Ry)=  0.0100
                       cart. coord. in units 2pi/alat
        k(    1) = (   0.0000000   0.0000000   0.0000000), wk =   0.0088889
        k(    2) = (   0.0000000   0.0788219   0.0000000), wk =   0.0533333
        k(    3) = (   0.0000000   0.1576437   0.0000000), wk =   0.0533333
        k(    4) = (   0.0000000   0.2364656   0.0000000), wk =   0.0533333
        k(    5) = (   0.0000000   0.3152875   0.0000000), wk =   0.0533333
        k(    6) = (   0.0000000   0.3941094   0.0000000), wk =   0.0533333
        k(    7) = (   0.0000000   0.4729312   0.0000000), wk =   0.0533333
        k(    8) = (   0.0000000   0.5517531   0.0000000), wk =   0.0533333
        k(    9) = (   0.0682617   0.1182328   0.0000000), wk =   0.0533333
        k(   10) = (   0.0682617   0.1970547   0.0000000), wk =   0.1066667
        k(   11) = (   0.0682617   0.2758766   0.0000000), wk =   0.1066667
        k(   12) = (   0.0682617   0.3546984   0.0000000), wk =   0.1066667
        k(   13) = (   0.0682617   0.4335203   0.0000000), wk =   0.1066667
        k(   14) = (   0.0682617   0.5123422   0.0000000), wk =   0.1066667
        k(   15) = (   0.0682617   0.5911640   0.0000000), wk =   0.0533333
        k(   16) = (   0.1365235   0.2364656   0.0000000), wk =   0.0533333
        k(   17) = (   0.1365235   0.3152875   0.0000000), wk =   0.1066667
        k(   18) = (   0.1365235   0.3941094   0.0000000), wk =   0.1066667
        k(   19) = (   0.1365235   0.4729312   0.0000000), wk =   0.1066667
        k(   20) = (   0.1365235   0.5517531   0.0000000), wk =   0.1066667
        k(   21) = (   0.2047852   0.3546984   0.0000000), wk =   0.0533333
        k(   22) = (   0.2047852   0.4335203   0.0000000), wk =   0.1066667
        k(   23) = (   0.2047852   0.5123422   0.0000000), wk =   0.1066667
        k(   24) = (   0.2047852   0.5911640   0.0000000), wk =   0.0533333
        k(   25) = (   0.2730470   0.4729312   0.0000000), wk =   0.0533333
        k(   26) = (   0.2730470   0.5517531   0.0000000), wk =   0.1066667
        k(   27) = (   0.3413087   0.5911640   0.0000000), wk =   0.0177778

     Initial potential from superposition of free atoms

     starting charge    7.98607, renormalised to    8.00000

     negative rho (up, down):  1.155E-04 0.000E+00
     Starting wfcs are random

     Self-consistent Calculation

     iteration #  1     ecut=    50.00 Ry     beta= 0.70
     Davidson diagonalization with overlap
     c_bands:  5 eigenvalues not converged
     c_bands:  2 eigenvalues not converged
     c_bands:  2 eigenvalues not converged
     c_bands:  5 eigenvalues not converged
     c_bands:  4 eigenvalues not converged
     c_bands:  4 eigenvalues not converged
     c_bands:  3 eigenvalues not converged
     c_bands:  2 eigenvalues not converged
     c_bands:  2 eigenvalues not converged
     c_bands:  5 eigenvalues not converged
     c_bands:  4 eigenvalues not converged
     c_bands:  4 eigenvalues not converged
     c_bands:  2 eigenvalues not converged
     c_bands:  3 eigenvalues not converged
     c_bands:  2 eigenvalues not converged
     c_bands:  4 eigenvalues not converged
     c_bands:  4 eigenvalues not converged
     c_bands:  4 eigenvalues not converged
     c_bands:  3 eigenvalues not converged
     c_bands:  2 eigenvalues not converged
     c_bands:  4 eigenvalues not converged
     c_bands:  3 eigenvalues not converged
     c_bands:  3 eigenvalues not converged
     c_bands:  3 eigenvalues not converged
     c_bands:  3 eigenvalues not converged
     c_bands:  3 eigenvalues not converged
     c_bands:  3 eigenvalues not converged
     ethr =  1.00E-06,  avg # of iterations = 22.2

[...]

     negative rho (up, down):  3.050E-06 0.000E+00

[...]

     total energy              =     -22.79048543 Ry
     estimated scf accuracy    <          1.0E-09 Ry

     iteration #  7     ecut=    50.00 Ry     beta= 0.70
     Davidson diagonalization with overlap
     ethr =  1.27E-11,  avg # of iterations =  3.2

     End of self-consistent calculation

[...]

          k = 0.3413 0.5912 0.0000 (  4449 PWs)   bands (ev):

   -16.8769 -16.8769 -14.9297  -4.1852  -4.1852   6.4676   8.8313   8.8316

     the Fermi energy is    -4.1852 ev

!    total energy              =     -22.79048543 Ry
     estimated scf accuracy    <          1.2E-11 Ry
     smearing contrib. (-TS)   =      -0.00005015 Ry
     internal energy E=F+TS    =     -22.79043528 Ry

     The total energy is F=E-TS. E is the sum of the following terms:
     one-electron contribution =    -391.96320144 Ry
     hartree contribution      =     196.61342809 Ry
     xc contribution           =      -7.03825421 Ry
     ewald contribution        =     179.59759227 Ry

     convergence has been achieved in   7 iterations

     Forces acting on atoms (cartesian axes, Ry/au):

     atom    1 type  1   force =     0.00000000    0.00000000    0.00000000
     atom    2 type  1   force =     0.00000000    0.00000000    0.00000000

     Total force =     0.000000     Total SCF correction =     0.000000

     Computing stress (Cartesian axis) and pressure

          total   stress  (Ry/bohr**3)                   (kbar)     P=       -7.33
  -0.00001998  -0.00000000  -0.00000000           -2.94       -0.00       -0.00
  -0.00000000  -0.00001998   0.00000000           -0.00       -2.94        0.00
   0.00000000   0.00000000  -0.00010949            0.00        0.00      -16.11

     Writing output data file ./work/LiC474.save/

     General routines

     Parallel routines

   This run was terminated on:  14:15:31  19Jan2024

   JOB DONE.