     Program PWSCF v.6.7MaX starts on 19Jan2024 at 13:55:17

     R & G space division:  proc/nbgrp/npool/nimage =      32
     Waiting for input...
     Reading input from standard input

     Current dimensions of program PWSCF are:
     Max number of different atomic species (ntypx) = 10
     Max number of k-points (npk) =  40000
     Max angular momentum in pseudopotentials (lmaxx) =  3
     Message from routine read_pp_mesh:
     mesh size missing, using the one in header

     Subspace diagonalization in iterative solution of the eigenvalue problem:
     a serial algorithm will be used

     bravais-lattice index     =            4
     lattice parameter (alat)  =       4.0800  a.u.
     unit-cell volume          =     583.8563 (a.u.)^3
     number of atoms/cell      =            2
     number of atomic types    =            1
     number of electrons       =         8.00
     number of Kohn-Sham states=            8
     kinetic-energy cutoff     =      50.0000  Ry
     charge density cutoff     =     200.0000  Ry
     scf convergence threshold =      1.0E-08
     mixing beta               =       0.7000
     number of iterations used =            8  plain     mixing
     energy convergence thresh.=      1.0E-04
     force convergence thresh. =      1.0E-08
     press convergence thresh. =      1.0E-03
     Exchange-correlation= PBE
                           (   1   4   3   4   0   0   0)
     nstep                     =           50

     celldm(1)=   4.080000  celldm(2)=   0.000000  celldm(3)=   9.926471
     celldm(4)=   0.000000  celldm(5)=   0.000000  celldm(6)=   0.000000

     crystal axes: (cart. coord. in units of alat)
               a(1) = (   1.000000   0.000000   0.000000 )
               a(2) = (  -0.500000   0.866025   0.000000 )
               a(3) = (   0.000000   0.000000   9.926471 )

     reciprocal axes: (cart. coord. in units 2 pi/alat)
               b(1) = (  1.000000  0.577350  0.000000 )
               b(2) = (  0.000000  1.154701  0.000000 )
               b(3) = (  0.000000  0.000000  0.100741 )

     PseudoPot. # 1 for C  read from file:
     /home/yhkim/qe-6.7/pseudo/ONCV1/1.2/C_ONCV_PBE-1.2.upf
     MD5 check sum: 1a5f83a7b1f58d24996abe00ed223ac6
     Pseudo is Norm-conserving, Zval =  4.0
     Generated using ONCVPSP code by D. R. Hamann
     Using radial grid of  602 points,  4 beta functions with:
                l(1) =   0
                l(2) =   0
                l(3) =   1
                l(4) =   1

     atomic species   valence    mass     pseudopotential
        C              4.00    12.01070     C ( 1.00)

     24 Sym. Ops., with inversion, found

   Cartesian axes

     site n.     atom                  positions (alat units)
         1           C   tau(   1) = (  -0.0000000   0.5773503   4.9632353  )
         2           C   tau(   2) = (   0.5000000   0.2886751   4.9632353  )

     number of k points=    27  Methfessel-Paxton smearing, width (Ry)=  0.0100
                       cart. coord. in units 2pi/alat
        k(    1) = (   0.0000000   0.0000000   0.0000000), wk =   0.0088889
        k(    2) = (   0.0000000   0.0769800   0.0000000), wk =   0.0533333
        k(    3) = (   0.0000000   0.1539601   0.0000000), wk =   0.0533333
        k(    4) = (   0.0000000   0.2309401   0.0000000), wk =   0.0533333
        k(    5) = (   0.0000000   0.3079201   0.0000000), wk =   0.0533333
        k(    6) = (   0.0000000   0.3849002   0.0000000), wk =   0.0533333
        k(    7) = (   0.0000000   0.4618802   0.0000000), wk =   0.0533333
        k(    8) = (   0.0000000   0.5388603   0.0000000), wk =   0.0533333
        k(    9) = (   0.0666667   0.1154701   0.0000000), wk =   0.0533333
        k(   10) = (   0.0666667   0.1924501   0.0000000), wk =   0.1066667
        k(   11) = (   0.0666667   0.2694301   0.0000000), wk =   0.1066667
        k(   12) = (   0.0666667   0.3464102   0.0000000), wk =   0.1066667
        k(   13) = (   0.0666667   0.4233902   0.0000000), wk =   0.1066667
        k(   14) = (   0.0666667   0.5003702   0.0000000), wk =   0.1066667
        k(   15) = (   0.0666667   0.5773503   0.0000000), wk =   0.0533333
        k(   16) = (   0.1333333   0.2309401   0.0000000), wk =   0.0533333
        k(   17) = (   0.1333333   0.3079201   0.0000000), wk =   0.1066667
        k(   18) = (   0.1333333   0.3849002   0.0000000), wk =   0.1066667
        k(   19) = (   0.1333333   0.4618802   0.0000000), wk =   0.1066667
        k(   20) = (   0.1333333   0.5388603   0.0000000), wk =   0.1066667
        k(   21) = (   0.2000000   0.3464102   0.0000000), wk =   0.0533333
        k(   22) = (   0.2000000   0.4233902   0.0000000), wk =   0.1066667
        k(   23) = (   0.2000000   0.5003702   0.0000000), wk =   0.1066667
        k(   24) = (   0.2000000   0.5773503   0.0000000), wk =   0.0533333
        k(   25) = (   0.2666667   0.4618802   0.0000000), wk =   0.0533333
        k(   26) = (   0.2666667   0.5388603   0.0000000), wk =   0.1066667
        k(   27) = (   0.3333333   0.5773503   0.0000000), wk =   0.0177778

     Initial potential from superposition of free atoms

     starting charge    7.98607, renormalised to    8.00000

     negative rho (up, down):  1.044E-04 0.000E+00
     Starting wfcs are random

     Self-consistent Calculation

     iteration #  1     ecut=    50.00 Ry     beta= 0.70
     Davidson diagonalization with overlap
     ethr =  1.00E-02,  avg # of iterations = 12.1

     negative rho (up, down):  2.259E-07 0.000E+00

     total energy              =     -22.50096439 Ry
     estimated scf accuracy    <       0.47104147 Ry

[...]

     iteration #  4     ecut=    50.00 Ry     beta= 0.70
     Davidson diagonalization with overlap
     c_bands:  1 eigenvalues not converged
     ethr =  2.26E-06,  avg # of iterations =  5.8

[...]

     End of self-consistent calculation

          k = 0.0000 0.0000 0.0000 (  3517 PWs)   bands (ev):

   -25.8407 -13.6045  -5.5943  -1.0448  -0.2135   0.5518   0.9062   2.2285

[...]

     the Fermi energy is    -2.8473 ev

!    total energy              =     -22.57381524 Ry
     estimated scf accuracy    <          4.0E-09 Ry
     smearing contrib. (-TS)   =      -0.00003668 Ry
     internal energy E=F+TS    =     -22.57377857 Ry

     The total energy is F=E-TS. E is the sum of the following terms:
     one-electron contribution =    -506.36268344 Ry
     hartree contribution      =     254.13743086 Ry
     xc contribution           =      -7.63173949 Ry
     ewald contribution        =     237.28321350 Ry

     convergence has been achieved in   6 iterations

     Forces acting on atoms (cartesian axes, Ry/au):

     atom    1 type  1   force =     0.00000000    0.00000000    0.00000000
     atom    2 type  1   force =     0.00000000    0.00000000    0.00000000

     Total force =     0.000000     Total SCF correction =     0.000000

     Computing stress (Cartesian axis) and pressure

          total   stress  (Ry/bohr**3)                   (kbar)     P=      268.76
   0.00281653   0.00000000   0.00000000          414.33        0.00        0.00
   0.00000000   0.00281653   0.00000000            0.00      414.33        0.00
   0.00000000   0.00000000  -0.00015216            0.00        0.00      -22.38

     BFGS Geometry Optimization
     Energy error            =      0.0E+00
     Gradient error          =      0.0E+00
     Cell gradient error     =      2.8E-03

     number of scf cycles    =   1
     number of bfgs steps    =   0

     enthalpy new            =     -22.5738152439 Ry

     new trust radius        =       0.3402804754 bohr
     new conv_thr            =       0.0000000100 Ry

     new unit-cell volume =    668.97346 a.u.^3 (    99.13164 Ang^3 )
     density =      0.40238 g/cm^3

CELL_PARAMETERS (alat=  4.08000000)
   1.070413195   0.000000000   0.000000000
  -0.535206597   0.927005019   0.000000000
   0.000000000   0.000000000   9.926470588

ATOMIC_POSITIONS (crystal)
C             0.3333333333        0.6666666667        0.5000000000
C             0.6666666667        0.3333333333        0.5000000000

     Writing output data file ./work/LiC408.save/
     NEW-OLD atomic charge density approx. for the potential

     negative rho (up, down):  1.784E-04 0.000E+00
     extrapolated charge    9.01611, renormalised to    8.00000

[...]

          k =-0.0000 0.0719 0.0000 (  3522 PWs)   bands (ev):

[...]

     Energy error            =      1.5E-01
     Gradient error          =      1.6E-26
     Cell gradient error     =      8.7E-04

[...]

     enthalpy old            =     -22.5738152439 Ry
     enthalpy new            =     -22.7243589514 Ry

     CASE: enthalpy_new < enthalpy_old

[...]

     Writing output data file ./work/LiC408.save/
     NEW-OLD atomic charge density approx. for the potential

     negative rho (up, down):  2.527E-06 0.000E+00
     extrapolated charge    8.02916, renormalised to    8.00000

[...]

     Writing output data file ./work/LiC408.save/
     NEW-OLD atomic charge density approx. for the potential
     extrapolated charge    8.00140, renormalised to    8.00000

[...]

     Threshold (ethr) on eigenvalues was too large:
     Diagonalizing with lowered threshold

     Davidson diagonalization with overlap
     ethr =  7.10E-09,  avg # of iterations =  1.0

[...]

     number of scf cycles    =   6
     number of bfgs steps    =   5

     enthalpy old            =     -22.7500099907 Ry
     enthalpy new            =     -22.7500100810 Ry

     CASE: enthalpy_new < enthalpy_old

     small trust_radius: resetting bfgs history

     new trust radius        =       0.0000010354 bohr
     new conv_thr            =            1.0E-10 Ry

     new unit-cell volume =    732.62567 a.u.^3 (   108.56392 Ang^3 )
     density =      0.36742 g/cm^3

[...]

ATOMIC_POSITIONS (crystal)
C             0.3333333333        0.6666666667        0.5000000000
C             0.6666666667        0.3333333333        0.5000000000

     Writing output data file ./work/LiC408.save/
     NEW-OLD atomic charge density approx. for the potential
     extrapolated charge    8.00000, renormalised to    8.00000

[...]

     Threshold (ethr) on eigenvalues was too large:
     Diagonalizing with lowered threshold

     Davidson diagonalization with overlap
     ethr =  7.87E-15,  avg # of iterations =  2.7

[...]

     Energy error            =      3.0E-12
     Gradient error          =      1.5E-26
     Cell gradient error     =      6.7E-09

     bfgs converged in   7 scf cycles and   6 bfgs steps
     (criteria: energy <  1.0E-04 Ry, force <  1.0E-08Ry/Bohr, cell <  1.0E-03kbar)

     End of BFGS Geometry Optimization

     Final enthalpy =     -22.7500100810 Ry

     File ./work/LiC408.bfgs deleted, as requested
Begin final coordinates
     new unit-cell volume =    732.62567 a.u.^3 (   108.56392 Ang^3 )
     density =      0.36742 g/cm^3

CELL_PARAMETERS (alat=  4.08000000)
   1.120180672   0.000000000   0.000000000
  -0.560090336   0.970104919   0.000000000
   0.000000000   0.000000000   9.926470588

ATOMIC_POSITIONS (crystal)
C             0.3333333333        0.6666666667        0.5000000000
C             0.6666666667        0.3333333333        0.5000000000
End final coordinates

     Writing output data file ./work/LiC408.save/

     Final scf calculation at the relaxed structure.
     The G-vectors are recalculated for the final unit cell
     Results may differ from those at the preceding step.

     bravais-lattice index     =            4
     lattice parameter (alat)  =       4.0800  a.u.
     unit-cell volume          =     732.6257 (a.u.)^3
     number of atoms/cell      =            2
     number of atomic types    =            1
     number of electrons       =         8.00
     number of Kohn-Sham states=            8
     kinetic-energy cutoff     =      50.0000  Ry
     charge density cutoff     =     200.0000  Ry
     scf convergence threshold =      1.0E-10
     mixing beta               =       0.7000
     number of iterations used =            8  plain     mixing
     press convergence thresh. =      1.0E-03
     Exchange-correlation= PBE
                           (   1   4   3   4   0   0   0)

     celldm(1)=   4.080000  celldm(2)=   0.000000  celldm(3)=   9.926471
     celldm(4)=   0.000000  celldm(5)=   0.000000  celldm(6)=   0.000000

     crystal axes: (cart. coord. in units of alat)
               a(1) = (   1.120181   0.000000   0.000000 )
               a(2) = (  -0.560090   0.970105   0.000000 )
               a(3) = (   0.000000   0.000000   9.926471 )

     reciprocal axes: (cart. coord. in units 2 pi/alat)
               b(1) = (  0.892713  0.515408  0.000000 )
               b(2) = ( -0.000000  1.030816  0.000000 )
               b(3) = (  0.000000  0.000000  0.100741 )

     PseudoPot. # 1 for C  read from file:
     /home/yhkim/qe-6.7/pseudo/ONCV1/1.2/C_ONCV_PBE-1.2.upf
     MD5 check sum: 1a5f83a7b1f58d24996abe00ed223ac6
     Pseudo is Norm-conserving, Zval =  4.0
     Generated using ONCVPSP code by D. R. Hamann
     Using radial grid of  602 points,  4 beta functions with:
                l(1) =   0
                l(2) =   0
                l(3) =   1
                l(4) =   1

     atomic species   valence    mass     pseudopotential
        C              4.00    12.01070     C ( 1.00)

     24 Sym. Ops., with inversion, found

   Cartesian axes

     site n.     atom                  positions (alat units)
         1           C   tau(   1) = (  -0.0000000   0.6467366   4.9632353  )
         2           C   tau(   2) = (   0.5600903   0.3233683   4.9632353  )

     number of k points=    27  Methfessel-Paxton smearing, width (Ry)=  0.0100
                       cart. coord. in units 2pi/alat
        k(    1) = (   0.0000000   0.0000000   0.0000000), wk =   0.0088889
        k(    2) = (  -0.0000000   0.0687211   0.0000000), wk =   0.0533333
        k(    3) = (  -0.0000000   0.1374422   0.0000000), wk =   0.0533333
        k(    4) = (  -0.0000000   0.2061633   0.0000000), wk =   0.0533333
        k(    5) = (  -0.0000000   0.2748844   0.0000000), wk =   0.0533333
        k(    6) = (  -0.0000000   0.3436054   0.0000000), wk =   0.0533333
        k(    7) = (  -0.0000000   0.4123265   0.0000000), wk =   0.0533333
        k(    8) = (  -0.0000000   0.4810476   0.0000000), wk =   0.0533333
        k(    9) = (   0.0595142   0.1030816   0.0000000), wk =   0.0533333
        k(   10) = (   0.0595142   0.1718027   0.0000000), wk =   0.1066667
        k(   11) = (   0.0595142   0.2405238   0.0000000), wk =   0.1066667
        k(   12) = (   0.0595142   0.3092449   0.0000000), wk =   0.1066667
        k(   13) = (   0.0595142   0.3779660   0.0000000), wk =   0.1066667
        k(   14) = (   0.0595142   0.4466871   0.0000000), wk =   0.1066667
        k(   15) = (   0.0595142   0.5154082   0.0000000), wk =   0.0533333
        k(   16) = (   0.1190284   0.2061633   0.0000000), wk =   0.0533333
        k(   17) = (   0.1190284   0.2748844   0.0000000), wk =   0.1066667
        k(   18) = (   0.1190284   0.3436054   0.0000000), wk =   0.1066667
        k(   19) = (   0.1190284   0.4123265   0.0000000), wk =   0.1066667
        k(   20) = (   0.1190284   0.4810476   0.0000000), wk =   0.1066667
        k(   21) = (   0.1785426   0.3092449   0.0000000), wk =   0.0533333
        k(   22) = (   0.1785426   0.3779660   0.0000000), wk =   0.1066667
        k(   23) = (   0.1785426   0.4466871   0.0000000), wk =   0.1066667
        k(   24) = (   0.1785426   0.5154082   0.0000000), wk =   0.0533333
        k(   25) = (   0.2380568   0.4123265   0.0000000), wk =   0.0533333
        k(   26) = (   0.2380568   0.4810476   0.0000000), wk =   0.1066667
        k(   27) = (   0.2975710   0.5154082   0.0000000), wk =   0.0177778

     Initial potential from superposition of free atoms

     starting charge    7.98607, renormalised to    8.00000

     negative rho (up, down):  1.100E-04 0.000E+00
     Starting wfcs are random

     Self-consistent Calculation

     iteration #  1     ecut=    50.00 Ry     beta= 0.70
     Davidson diagonalization with overlap
     c_bands:  5 eigenvalues not converged
     c_bands:  5 eigenvalues not converged
     c_bands:  5 eigenvalues not converged
     c_bands:  4 eigenvalues not converged
     c_bands:  4 eigenvalues not converged
     c_bands:  3 eigenvalues not converged
     c_bands:  2 eigenvalues not converged
     c_bands:  2 eigenvalues not converged
     c_bands:  2 eigenvalues not converged
     c_bands:  5 eigenvalues not converged
     c_bands:  4 eigenvalues not converged
     c_bands:  4 eigenvalues not converged
     c_bands:  3 eigenvalues not converged
     c_bands:  2 eigenvalues not converged
     c_bands:  2 eigenvalues not converged
     c_bands:  4 eigenvalues not converged
     c_bands:  4 eigenvalues not converged
     c_bands:  3 eigenvalues not converged
     c_bands:  3 eigenvalues not converged
     c_bands:  2 eigenvalues not converged
     c_bands:  4 eigenvalues not converged
     c_bands:  3 eigenvalues not converged
     c_bands:  3 eigenvalues not converged
     c_bands:  3 eigenvalues not converged
     c_bands:  3 eigenvalues not converged
     c_bands:  3 eigenvalues not converged
     c_bands:  3 eigenvalues not converged
     ethr =  1.00E-06,  avg # of iterations = 20.7

[...]

     negative rho (up, down):  2.711E-06 0.000E+00

[...]

     total energy              =     -22.78680234 Ry
     estimated scf accuracy    <          1.1E-09 Ry

     iteration #  7     ecut=    50.00 Ry     beta= 0.70
     Davidson diagonalization with overlap
     ethr =  1.39E-11,  avg # of iterations =  3.0

     End of self-consistent calculation

[...]

          k =-0.0000 0.4810 0.0000 (  4390 PWs)   bands (ev):

[...]

          k = 0.2976 0.5154 0.0000 (  4389 PWs)   bands (ev):

   -16.8769 -16.8769 -15.1063  -4.0725  -4.0725   6.6408   9.1910   9.1910

     the Fermi energy is    -4.0725 ev

!    total energy              =     -22.78680234 Ry
     estimated scf accuracy    <          1.5E-11 Ry
     smearing contrib. (-TS)   =      -0.00005015 Ry
     internal energy E=F+TS    =     -22.78675219 Ry

     The total energy is F=E-TS. E is the sum of the following terms:
     one-electron contribution =    -402.25503684 Ry
     hartree contribution      =     201.78636092 Ry
     xc contribution           =      -7.09422133 Ry
     ewald contribution        =     184.77614506 Ry

     convergence has been achieved in   7 iterations

     Forces acting on atoms (cartesian axes, Ry/au):

     atom    1 type  1   force =     0.00000000    0.00000000    0.00000000
     atom    2 type  1   force =     0.00000000    0.00000000    0.00000000

     Total force =     0.000000     Total SCF correction =     0.000000

     Computing stress (Cartesian axis) and pressure

          total   stress  (Ry/bohr**3)                   (kbar)     P=       10.11
   0.00015975   0.00000000   0.00000000           23.50        0.00        0.00
   0.00000000   0.00015975   0.00000000            0.00       23.50        0.00
   0.00000000   0.00000000  -0.00011325            0.00        0.00      -16.66

     Writing output data file ./work/LiC408.save/

     General routines

     Parallel routines

   This run was terminated on:  13:55:44  19Jan2024

   JOB DONE.