     Program PWSCF v.6.7MaX starts on 19Jan2024 at 13:42:34

     R & G space division:  proc/nbgrp/npool/nimage =      32
     Waiting for input...
     Reading input from standard input

     Current dimensions of program PWSCF are:
     Max number of different atomic species (ntypx) = 10
     Max number of k-points (npk) =  40000
     Max angular momentum in pseudopotentials (lmaxx) =  3
     Message from routine read_pp_mesh:
     mesh size missing, using the one in header

     Subspace diagonalization in iterative solution of the eigenvalue problem:
     a serial algorithm will be used

     bravais-lattice index     =            4
     lattice parameter (alat)  =       4.5900  a.u.
     unit-cell volume          =     738.9431 (a.u.)^3
     number of atoms/cell      =            2
     number of atomic types    =            1
     number of electrons       =         8.00
     number of Kohn-Sham states=            8
     kinetic-energy cutoff     =      50.0000  Ry
     charge density cutoff     =     200.0000  Ry
     scf convergence threshold =      1.0E-08
     mixing beta               =       0.7000
     number of iterations used =            8  plain     mixing
     energy convergence thresh.=      1.0E-04
     force convergence thresh. =      1.0E-08
     press convergence thresh. =      1.0E-03
     Exchange-correlation= PBE
                           (   1   4   3   4   0   0   0)
     nstep                     =           50

     celldm(1)=   4.590000  celldm(2)=   0.000000  celldm(3)=   8.823529
     celldm(4)=   0.000000  celldm(5)=   0.000000  celldm(6)=   0.000000

     crystal axes: (cart. coord. in units of alat)
               a(1) = (   1.000000   0.000000   0.000000 )
               a(2) = (  -0.500000   0.866025   0.000000 )
               a(3) = (   0.000000   0.000000   8.823529 )

     reciprocal axes: (cart. coord. in units 2 pi/alat)
               b(1) = (  1.000000  0.577350  0.000000 )
               b(2) = (  0.000000  1.154701  0.000000 )
               b(3) = (  0.000000  0.000000  0.113333 )

     PseudoPot. # 1 for C  read from file:
     /home/yhkim/qe-6.7/pseudo/ONCV1/1.2/C_ONCV_PBE-1.2.upf
     MD5 check sum: 1a5f83a7b1f58d24996abe00ed223ac6
     Pseudo is Norm-conserving, Zval =  4.0
     Generated using ONCVPSP code by D. R. Hamann
     Using radial grid of  602 points,  4 beta functions with:
                l(1) =   0
                l(2) =   0
                l(3) =   1
                l(4) =   1

     atomic species   valence    mass     pseudopotential
        C              4.00    12.01070     C ( 1.00)

     24 Sym. Ops., with inversion, found

   Cartesian axes

     site n.     atom                  positions (alat units)
         1           C   tau(   1) = (  -0.0000000   0.5773503   4.4117647  )
         2           C   tau(   2) = (   0.5000000   0.2886751   4.4117647  )

     number of k points=    27  Methfessel-Paxton smearing, width (Ry)=  0.0100
                       cart. coord. in units 2pi/alat
        k(    1) = (   0.0000000   0.0000000   0.0000000), wk =   0.0088889
        k(    2) = (   0.0000000   0.0769800   0.0000000), wk =   0.0533333
        k(    3) = (   0.0000000   0.1539601   0.0000000), wk =   0.0533333
        k(    4) = (   0.0000000   0.2309401   0.0000000), wk =   0.0533333
        k(    5) = (   0.0000000   0.3079201   0.0000000), wk =   0.0533333
        k(    6) = (   0.0000000   0.3849002   0.0000000), wk =   0.0533333
        k(    7) = (   0.0000000   0.4618802   0.0000000), wk =   0.0533333
        k(    8) = (   0.0000000   0.5388603   0.0000000), wk =   0.0533333
        k(    9) = (   0.0666667   0.1154701   0.0000000), wk =   0.0533333
        k(   10) = (   0.0666667   0.1924501   0.0000000), wk =   0.1066667
        k(   11) = (   0.0666667   0.2694301   0.0000000), wk =   0.1066667
        k(   12) = (   0.0666667   0.3464102   0.0000000), wk =   0.1066667
        k(   13) = (   0.0666667   0.4233902   0.0000000), wk =   0.1066667
        k(   14) = (   0.0666667   0.5003702   0.0000000), wk =   0.1066667
        k(   15) = (   0.0666667   0.5773503   0.0000000), wk =   0.0533333
        k(   16) = (   0.1333333   0.2309401   0.0000000), wk =   0.0533333
        k(   17) = (   0.1333333   0.3079201   0.0000000), wk =   0.1066667
        k(   18) = (   0.1333333   0.3849002   0.0000000), wk =   0.1066667
        k(   19) = (   0.1333333   0.4618802   0.0000000), wk =   0.1066667
        k(   20) = (   0.1333333   0.5388603   0.0000000), wk =   0.1066667
        k(   21) = (   0.2000000   0.3464102   0.0000000), wk =   0.0533333
        k(   22) = (   0.2000000   0.4233902   0.0000000), wk =   0.1066667
        k(   23) = (   0.2000000   0.5003702   0.0000000), wk =   0.1066667
        k(   24) = (   0.2000000   0.5773503   0.0000000), wk =   0.0533333
        k(   25) = (   0.2666667   0.4618802   0.0000000), wk =   0.0533333
        k(   26) = (   0.2666667   0.5388603   0.0000000), wk =   0.1066667
        k(   27) = (   0.3333333   0.5773503   0.0000000), wk =   0.0177778

     Initial potential from superposition of free atoms

     starting charge    7.98607, renormalised to    8.00000

     negative rho (up, down):  1.111E-04 0.000E+00
     Starting wfcs are random

     Self-consistent Calculation

     iteration #  1     ecut=    50.00 Ry     beta= 0.70
     Davidson diagonalization with overlap
     ethr =  1.00E-02,  avg # of iterations = 11.9

     negative rho (up, down):  4.129E-08 0.000E+00

     total energy              =     -22.75542362 Ry
     estimated scf accuracy    <       0.18928735 Ry

[...]

     iteration #  4     ecut=    50.00 Ry     beta= 0.70
     Davidson diagonalization with overlap
     c_bands:  1 eigenvalues not converged
     ethr =  1.98E-06,  avg # of iterations =  6.1

[...]

     End of self-consistent calculation

          k = 0.0000 0.0000 0.0000 (  4375 PWs)   bands (ev):

   -24.0224 -12.0486  -7.1744  -7.1744  -0.9888  -0.2043   0.5819   0.9372

[...]

     the Fermi energy is    -4.1107 ev

!    total energy              =     -22.78845684 Ry
     estimated scf accuracy    <          3.5E-10 Ry
     smearing contrib. (-TS)   =      -0.00005015 Ry
     internal energy E=F+TS    =     -22.78840669 Ry

     The total energy is F=E-TS. E is the sum of the following terms:
     one-electron contribution =    -398.77443906 Ry
     hartree contribution      =     200.03684376 Ry
     xc contribution           =      -7.07534615 Ry
     ewald contribution        =     183.02453476 Ry

     convergence has been achieved in   6 iterations

     Forces acting on atoms (cartesian axes, Ry/au):

     atom    1 type  1   force =     0.00000000    0.00000000    0.00000000
     atom    2 type  1   force =     0.00000000    0.00000000    0.00000000

     Total force =     0.000000     Total SCF correction =     0.000000

     Computing stress (Cartesian axis) and pressure

          total   stress  (Ry/bohr**3)                   (kbar)     P=        4.07
   0.00009748   0.00000000   0.00000000           14.34        0.00        0.00
   0.00000000   0.00009748  -0.00000000            0.00       14.34       -0.00
  -0.00000000   0.00000000  -0.00011185           -0.00        0.00      -16.45

     BFGS Geometry Optimization
     Energy error            =      0.0E+00
     Gradient error          =      0.0E+00
     Cell gradient error     =      9.7E-05

     number of scf cycles    =   1
     number of bfgs steps    =   0

     enthalpy new            =     -22.7884568404 Ry

     new trust radius        =       0.0132488745 bohr
     new conv_thr            =       0.0000000100 Ry

     new unit-cell volume =    742.54904 a.u.^3 (   110.03442 Ang^3 )
     density =      0.36251 g/cm^3

CELL_PARAMETERS (alat=  4.59000000)
   1.002436932   0.000000000   0.000000000
  -0.501218466   0.868135849   0.000000000
   0.000000000   0.000000000   8.823529412

ATOMIC_POSITIONS (crystal)
C             0.3333333333        0.6666666667        0.5000000000
C             0.6666666667        0.3333333333        0.5000000000

     Writing output data file ./work/LiC459.save/
     NEW-OLD atomic charge density approx. for the potential

     negative rho (up, down):  5.247E-07 0.000E+00
     extrapolated charge    8.03878, renormalised to    8.00000

[...]

          k =-0.0000 0.0768 0.0000 (  4389 PWs)   bands (ev):

[...]

     Energy error            =      2.8E-04
     Gradient error          =      0.0E+00
     Cell gradient error     =      6.1E-05

[...]

     enthalpy old            =     -22.7884568404 Ry
     enthalpy new            =     -22.7887415291 Ry

     CASE: enthalpy_new < enthalpy_old

[...]

     Writing output data file ./work/LiC459.save/
     NEW-OLD atomic charge density approx. for the potential

     negative rho (up, down):  2.030E-07 0.000E+00
     extrapolated charge    8.02252, renormalised to    8.00000

[...]

     number of scf cycles    =   4
     number of bfgs steps    =   3

     enthalpy old            =     -22.7889032410 Ry
     enthalpy new            =     -22.7889255956 Ry

     CASE: enthalpy_new < enthalpy_old

     new trust radius        =       0.0001120825 bohr
     new conv_thr            =            1.0E-10 Ry

     new unit-cell volume =    748.66778 a.u.^3 (   110.94112 Ang^3 )
     density =      0.35955 g/cm^3

[...]

ATOMIC_POSITIONS (crystal)
C             0.3333333333        0.6666666667        0.5000000000
C             0.6666666667        0.3333333333        0.5000000000

     Writing output data file ./work/LiC459.save/
     NEW-OLD atomic charge density approx. for the potential
     extrapolated charge    8.00033, renormalised to    8.00000

[...]

     Threshold (ethr) on eigenvalues was too large:
     Diagonalizing with lowered threshold

     Davidson diagonalization with overlap
     ethr =  3.60E-10,  avg # of iterations =  1.8

[...]

     Energy error            =      4.6E-09
     Gradient error          =      1.7E-26
     Cell gradient error     =      1.8E-09

     bfgs converged in   5 scf cycles and   4 bfgs steps
     (criteria: energy <  1.0E-04 Ry, force <  1.0E-08Ry/Bohr, cell <  1.0E-03kbar)

     End of BFGS Geometry Optimization

     Final enthalpy =     -22.7889256003 Ry

     File ./work/LiC459.bfgs deleted, as requested
Begin final coordinates
     new unit-cell volume =    748.66778 a.u.^3 (   110.94112 Ang^3 )
     density =      0.35955 g/cm^3

CELL_PARAMETERS (alat=  4.59000000)
   1.006558585   0.000000000   0.000000000
  -0.503279293   0.871705305   0.000000000
   0.000000000   0.000000000   8.823529412

ATOMIC_POSITIONS (crystal)
C             0.3333333333        0.6666666667        0.5000000000
C             0.6666666667        0.3333333333        0.5000000000
End final coordinates

     Writing output data file ./work/LiC459.save/

     Final scf calculation at the relaxed structure.
     The G-vectors are recalculated for the final unit cell
     Results may differ from those at the preceding step.

     bravais-lattice index     =            4
     lattice parameter (alat)  =       4.5900  a.u.
     unit-cell volume          =     748.6678 (a.u.)^3
     number of atoms/cell      =            2
     number of atomic types    =            1
     number of electrons       =         8.00
     number of Kohn-Sham states=            8
     kinetic-energy cutoff     =      50.0000  Ry
     charge density cutoff     =     200.0000  Ry
     scf convergence threshold =      1.0E-10
     mixing beta               =       0.7000
     number of iterations used =            8  plain     mixing
     press convergence thresh. =      1.0E-03
     Exchange-correlation= PBE
                           (   1   4   3   4   0   0   0)

     celldm(1)=   4.590000  celldm(2)=   0.000000  celldm(3)=   8.823529
     celldm(4)=   0.000000  celldm(5)=   0.000000  celldm(6)=   0.000000

     crystal axes: (cart. coord. in units of alat)
               a(1) = (   1.006559   0.000000   0.000000 )
               a(2) = (  -0.503279   0.871705   0.000000 )
               a(3) = (   0.000000   0.000000   8.823529 )

     reciprocal axes: (cart. coord. in units 2 pi/alat)
               b(1) = (  0.993484  0.573588  0.000000 )
               b(2) = ( -0.000000  1.147177  0.000000 )
               b(3) = (  0.000000  0.000000  0.113333 )

     PseudoPot. # 1 for C  read from file:
     /home/yhkim/qe-6.7/pseudo/ONCV1/1.2/C_ONCV_PBE-1.2.upf
     MD5 check sum: 1a5f83a7b1f58d24996abe00ed223ac6
     Pseudo is Norm-conserving, Zval =  4.0
     Generated using ONCVPSP code by D. R. Hamann
     Using radial grid of  602 points,  4 beta functions with:
                l(1) =   0
                l(2) =   0
                l(3) =   1
                l(4) =   1

     atomic species   valence    mass     pseudopotential
        C              4.00    12.01070     C ( 1.00)

     24 Sym. Ops., with inversion, found

   Cartesian axes

     site n.     atom                  positions (alat units)
         1           C   tau(   1) = (  -0.0000000   0.5811369   4.4117647  )
         2           C   tau(   2) = (   0.5032793   0.2905684   4.4117647  )

     number of k points=    27  Methfessel-Paxton smearing, width (Ry)=  0.0100
                       cart. coord. in units 2pi/alat
        k(    1) = (   0.0000000   0.0000000   0.0000000), wk =   0.0088889
        k(    2) = (  -0.0000000   0.0764784   0.0000000), wk =   0.0533333
        k(    3) = (  -0.0000000   0.1529569   0.0000000), wk =   0.0533333
        k(    4) = (  -0.0000000   0.2294353   0.0000000), wk =   0.0533333
        k(    5) = (  -0.0000000   0.3059138   0.0000000), wk =   0.0533333
        k(    6) = (  -0.0000000   0.3823922   0.0000000), wk =   0.0533333
        k(    7) = (  -0.0000000   0.4588707   0.0000000), wk =   0.0533333
        k(    8) = (  -0.0000000   0.5353491   0.0000000), wk =   0.0533333
        k(    9) = (   0.0662323   0.1147177   0.0000000), wk =   0.0533333
        k(   10) = (   0.0662323   0.1911961   0.0000000), wk =   0.1066667
        k(   11) = (   0.0662323   0.2676746   0.0000000), wk =   0.1066667
        k(   12) = (   0.0662323   0.3441530   0.0000000), wk =   0.1066667
        k(   13) = (   0.0662323   0.4206315   0.0000000), wk =   0.1066667
        k(   14) = (   0.0662323   0.4971099   0.0000000), wk =   0.1066667
        k(   15) = (   0.0662323   0.5735883   0.0000000), wk =   0.0533333
        k(   16) = (   0.1324646   0.2294353   0.0000000), wk =   0.0533333
        k(   17) = (   0.1324646   0.3059138   0.0000000), wk =   0.1066667
        k(   18) = (   0.1324646   0.3823922   0.0000000), wk =   0.1066667
        k(   19) = (   0.1324646   0.4588707   0.0000000), wk =   0.1066667
        k(   20) = (   0.1324646   0.5353491   0.0000000), wk =   0.1066667
        k(   21) = (   0.1986968   0.3441530   0.0000000), wk =   0.0533333
        k(   22) = (   0.1986968   0.4206315   0.0000000), wk =   0.1066667
        k(   23) = (   0.1986968   0.4971099   0.0000000), wk =   0.1066667
        k(   24) = (   0.1986968   0.5735883   0.0000000), wk =   0.0533333
        k(   25) = (   0.2649291   0.4588707   0.0000000), wk =   0.0533333
        k(   26) = (   0.2649291   0.5353491   0.0000000), wk =   0.1066667
        k(   27) = (   0.3311614   0.5735883   0.0000000), wk =   0.0177778

     Initial potential from superposition of free atoms

     starting charge    7.98607, renormalised to    8.00000

     negative rho (up, down):  1.143E-04 0.000E+00
     Starting wfcs are random

     Self-consistent Calculation

[...]

     negative rho (up, down):  2.892E-06 0.000E+00

[...]

     iteration #  4     ecut=    50.00 Ry     beta= 0.70
     Davidson diagonalization with overlap
     c_bands:  1 eigenvalues not converged
     ethr =  2.18E-06,  avg # of iterations =  5.1

[...]

     total energy              =     -22.79015333 Ry
     estimated scf accuracy    <          1.1E-09 Ry

     iteration #  7     ecut=    50.00 Ry     beta= 0.70
     Davidson diagonalization with overlap
     ethr =  1.40E-11,  avg # of iterations =  3.1

     End of self-consistent calculation

[...]

          k =-0.0000 0.5353 0.0000 (  4503 PWs)   bands (ev):

[...]

          k = 0.3312 0.5736 0.0000 (  4425 PWs)   bands (ev):

   -16.8769 -16.8769 -14.9569  -4.1679  -4.1679   6.4939   8.8882   8.8885

     the Fermi energy is    -4.1679 ev

!    total energy              =     -22.79015333 Ry
     estimated scf accuracy    <          1.1E-11 Ry
     smearing contrib. (-TS)   =      -0.00005015 Ry
     internal energy E=F+TS    =     -22.79010318 Ry

     The total energy is F=E-TS. E is the sum of the following terms:
     one-electron contribution =    -393.53322387 Ry
     hartree contribution      =     197.40251267 Ry
     xc contribution           =      -7.04682179 Ry
     ewald contribution        =     180.38742982 Ry

     convergence has been achieved in   7 iterations

     Forces acting on atoms (cartesian axes, Ry/au):

     atom    1 type  1   force =     0.00000000    0.00000000    0.00000000
     atom    2 type  1   force =     0.00000000    0.00000000    0.00000000

     Total force =     0.000000     Total SCF correction =     0.000000

     Computing stress (Cartesian axis) and pressure

          total   stress  (Ry/bohr**3)                   (kbar)     P=       -4.75
   0.00000660  -0.00000000  -0.00000000            0.97       -0.00       -0.00
  -0.00000000   0.00000660  -0.00000000           -0.00        0.97       -0.00
  -0.00000000  -0.00000000  -0.00011011           -0.00       -0.00      -16.20

     Writing output data file ./work/LiC459.save/

     General routines

     Parallel routines

   This run was terminated on:  13:42:43  19Jan2024

   JOB DONE.