     Program PWSCF v.6.7MaX starts on 19Jan2024 at 14: 4: 0

     R & G space division:  proc/nbgrp/npool/nimage =      32
     Waiting for input...
     Reading input from standard input

     Current dimensions of program PWSCF are:
     Max number of different atomic species (ntypx) = 10
     Max number of k-points (npk) =  40000
     Max angular momentum in pseudopotentials (lmaxx) =  3
     Message from routine read_pp_mesh:
     mesh size missing, using the one in header

     Subspace diagonalization in iterative solution of the eigenvalue problem:
     a serial algorithm will be used

     bravais-lattice index     =            4
     lattice parameter (alat)  =       4.1800  a.u.
     unit-cell volume          =     612.8275 (a.u.)^3
     number of atoms/cell      =            2
     number of atomic types    =            1
     number of electrons       =         8.00
     number of Kohn-Sham states=            8
     kinetic-energy cutoff     =      50.0000  Ry
     charge density cutoff     =     200.0000  Ry
     scf convergence threshold =      1.0E-08
     mixing beta               =       0.7000
     number of iterations used =            8  plain     mixing
     energy convergence thresh.=      1.0E-04
     force convergence thresh. =      1.0E-08
     press convergence thresh. =      1.0E-03
     Exchange-correlation= PBE
                           (   1   4   3   4   0   0   0)
     nstep                     =           50

     celldm(1)=   4.180000  celldm(2)=   0.000000  celldm(3)=   9.688995
     celldm(4)=   0.000000  celldm(5)=   0.000000  celldm(6)=   0.000000

     crystal axes: (cart. coord. in units of alat)
               a(1) = (   1.000000   0.000000   0.000000 )
               a(2) = (  -0.500000   0.866025   0.000000 )
               a(3) = (   0.000000   0.000000   9.688995 )

     reciprocal axes: (cart. coord. in units 2 pi/alat)
               b(1) = (  1.000000  0.577350  0.000000 )
               b(2) = (  0.000000  1.154701  0.000000 )
               b(3) = (  0.000000  0.000000  0.103210 )

     PseudoPot. # 1 for C  read from file:
     /home/yhkim/qe-6.7/pseudo/ONCV1/1.2/C_ONCV_PBE-1.2.upf
     MD5 check sum: 1a5f83a7b1f58d24996abe00ed223ac6
     Pseudo is Norm-conserving, Zval =  4.0
     Generated using ONCVPSP code by D. R. Hamann
     Using radial grid of  602 points,  4 beta functions with:
                l(1) =   0
                l(2) =   0
                l(3) =   1
                l(4) =   1

     atomic species   valence    mass     pseudopotential
        C              4.00    12.01070     C ( 1.00)

     24 Sym. Ops., with inversion, found

   Cartesian axes

     site n.     atom                  positions (alat units)
         1           C   tau(   1) = (  -0.0000000   0.5773503   4.8444976  )
         2           C   tau(   2) = (   0.5000000   0.2886751   4.8444976  )

     number of k points=    27  Methfessel-Paxton smearing, width (Ry)=  0.0100
                       cart. coord. in units 2pi/alat
        k(    1) = (   0.0000000   0.0000000   0.0000000), wk =   0.0088889
        k(    2) = (   0.0000000   0.0769800   0.0000000), wk =   0.0533333
        k(    3) = (   0.0000000   0.1539601   0.0000000), wk =   0.0533333
        k(    4) = (   0.0000000   0.2309401   0.0000000), wk =   0.0533333
        k(    5) = (   0.0000000   0.3079201   0.0000000), wk =   0.0533333
        k(    6) = (   0.0000000   0.3849002   0.0000000), wk =   0.0533333
        k(    7) = (   0.0000000   0.4618802   0.0000000), wk =   0.0533333
        k(    8) = (   0.0000000   0.5388603   0.0000000), wk =   0.0533333
        k(    9) = (   0.0666667   0.1154701   0.0000000), wk =   0.0533333
        k(   10) = (   0.0666667   0.1924501   0.0000000), wk =   0.1066667
        k(   11) = (   0.0666667   0.2694301   0.0000000), wk =   0.1066667
        k(   12) = (   0.0666667   0.3464102   0.0000000), wk =   0.1066667
        k(   13) = (   0.0666667   0.4233902   0.0000000), wk =   0.1066667
        k(   14) = (   0.0666667   0.5003702   0.0000000), wk =   0.1066667
        k(   15) = (   0.0666667   0.5773503   0.0000000), wk =   0.0533333
        k(   16) = (   0.1333333   0.2309401   0.0000000), wk =   0.0533333
        k(   17) = (   0.1333333   0.3079201   0.0000000), wk =   0.1066667
        k(   18) = (   0.1333333   0.3849002   0.0000000), wk =   0.1066667
        k(   19) = (   0.1333333   0.4618802   0.0000000), wk =   0.1066667
        k(   20) = (   0.1333333   0.5388603   0.0000000), wk =   0.1066667
        k(   21) = (   0.2000000   0.3464102   0.0000000), wk =   0.0533333
        k(   22) = (   0.2000000   0.4233902   0.0000000), wk =   0.1066667
        k(   23) = (   0.2000000   0.5003702   0.0000000), wk =   0.1066667
        k(   24) = (   0.2000000   0.5773503   0.0000000), wk =   0.0533333
        k(   25) = (   0.2666667   0.4618802   0.0000000), wk =   0.0533333
        k(   26) = (   0.2666667   0.5388603   0.0000000), wk =   0.1066667
        k(   27) = (   0.3333333   0.5773503   0.0000000), wk =   0.0177778

     Initial potential from superposition of free atoms

     starting charge    7.98607, renormalised to    8.00000

     negative rho (up, down):  1.040E-04 0.000E+00
     Starting wfcs are random

     Self-consistent Calculation

     iteration #  1     ecut=    50.00 Ry     beta= 0.70
     Davidson diagonalization with overlap
     ethr =  1.00E-02,  avg # of iterations = 11.6

     negative rho (up, down):  1.146E-07 0.000E+00

     total energy              =     -22.58937619 Ry
     estimated scf accuracy    <       0.39283804 Ry

[...]

     End of self-consistent calculation

          k = 0.0000 0.0000 0.0000 (  3691 PWs)   bands (ev):

   -25.4794 -13.2627  -5.9980  -1.0358  -0.2115   0.5578   0.9129   2.2363

[...]

     the Fermi energy is    -3.1334 ev

!    total energy              =     -22.64946580 Ry
     estimated scf accuracy    <          5.8E-09 Ry
     smearing contrib. (-TS)   =      -0.00003668 Ry
     internal energy E=F+TS    =     -22.64942912 Ry

     The total energy is F=E-TS. E is the sum of the following terms:
     one-electron contribution =    -482.06298490 Ry
     hartree contribution      =     241.91226780 Ry
     xc contribution           =      -7.51034349 Ry
     ewald contribution        =     225.01163147 Ry

     convergence has been achieved in   6 iterations

     Forces acting on atoms (cartesian axes, Ry/au):

     atom    1 type  1   force =     0.00000000    0.00000000    0.00000000
     atom    2 type  1   force =     0.00000000    0.00000000    0.00000000

     Total force =     0.000000     Total SCF correction =     0.000000

     Computing stress (Cartesian axis) and pressure

          total   stress  (Ry/bohr**3)                   (kbar)     P=      194.74
   0.00205693  -0.00000000   0.00000000          302.58       -0.00        0.00
  -0.00000000   0.00205693  -0.00000000           -0.00      302.58       -0.00
   0.00000000   0.00000000  -0.00014246            0.00        0.00      -20.96

     BFGS Geometry Optimization
     Energy error            =      0.0E+00
     Gradient error          =      0.0E+00
     Cell gradient error     =      2.1E-03

     number of scf cycles    =   1
     number of bfgs steps    =   0

     enthalpy new            =     -22.6494657958 Ry

     new trust radius        =       0.2545996529 bohr
     new conv_thr            =       0.0000000100 Ry

     new unit-cell volume =    677.47503 a.u.^3 (   100.39144 Ang^3 )
     density =      0.39733 g/cm^3

CELL_PARAMETERS (alat=  4.18000000)
   1.051423154  -0.000000000   0.000000000
  -0.525711577   0.910559161   0.000000000
   0.000000000   0.000000000   9.688995215

ATOMIC_POSITIONS (crystal)
C             0.3333333333        0.6666666667        0.5000000000
C             0.6666666667        0.3333333333        0.5000000000

     Writing output data file ./work/LiC418.save/
     NEW-OLD atomic charge density approx. for the potential

     negative rho (up, down):  1.388E-04 0.000E+00
     extrapolated charge    8.76206, renormalised to    8.00000

[...]

     iteration #  1     ecut=    50.00 Ry     beta= 0.70
     Davidson diagonalization with overlap
     c_bands:  1 eigenvalues not converged
     c_bands:  2 eigenvalues not converged
     c_bands:  2 eigenvalues not converged
     c_bands:  3 eigenvalues not converged
     c_bands:  3 eigenvalues not converged
     c_bands:  4 eigenvalues not converged
     c_bands:  4 eigenvalues not converged
     c_bands:  1 eigenvalues not converged
     c_bands:  3 eigenvalues not converged
     c_bands:  2 eigenvalues not converged
     c_bands:  3 eigenvalues not converged
     c_bands:  3 eigenvalues not converged
     c_bands:  5 eigenvalues not converged
     c_bands:  5 eigenvalues not converged
     c_bands:  5 eigenvalues not converged
     c_bands:  4 eigenvalues not converged
     c_bands:  5 eigenvalues not converged
     c_bands:  5 eigenvalues not converged
     c_bands:  5 eigenvalues not converged
     c_bands:  5 eigenvalues not converged
     c_bands:  4 eigenvalues not converged
     c_bands:  5 eigenvalues not converged
     c_bands:  5 eigenvalues not converged
     c_bands:  1 eigenvalues not converged
     ethr =  1.00E-06,  avg # of iterations = 23.4

[...]

     Energy error            =      9.0E-02
     Gradient error          =      1.6E-26
     Cell gradient error     =      7.7E-04

[...]

     enthalpy old            =     -22.6494657958 Ry
     enthalpy new            =     -22.7396502666 Ry

     CASE: enthalpy_new < enthalpy_old

[...]

     Writing output data file ./work/LiC418.save/
     NEW-OLD atomic charge density approx. for the potential

     negative rho (up, down):  3.359E-07 0.000E+00
     extrapolated charge    8.02115, renormalised to    8.00000

[...]

     Writing output data file ./work/LiC418.save/
     NEW-OLD atomic charge density approx. for the potential
     extrapolated charge    8.00078, renormalised to    8.00000

[...]

     Threshold (ethr) on eigenvalues was too large:
     Diagonalizing with lowered threshold

     Davidson diagonalization with overlap
     ethr =  2.17E-09,  avg # of iterations =  1.3

[...]

     number of scf cycles    =   6
     number of bfgs steps    =   5

     enthalpy old            =     -22.7607879314 Ry
     enthalpy new            =     -22.7607879591 Ry

     CASE: enthalpy_new < enthalpy_old

     small trust_radius: resetting bfgs history

     new trust radius        =       0.0000009267 bohr
     new conv_thr            =            1.0E-10 Ry

     new unit-cell volume =    736.33737 a.u.^3 (   109.11394 Ang^3 )
     density =      0.36557 g/cm^3

[...]

ATOMIC_POSITIONS (crystal)
C             0.3333333333        0.6666666667        0.5000000000
C             0.6666666667        0.3333333333        0.5000000000

     Writing output data file ./work/LiC418.save/
     NEW-OLD atomic charge density approx. for the potential
     extrapolated charge    8.00000, renormalised to    8.00000

[...]

     Threshold (ethr) on eigenvalues was too large:
     Diagonalizing with lowered threshold

     Davidson diagonalization with overlap
     ethr =  1.05E-13,  avg # of iterations =  3.0

[...]

     Energy error            =      1.7E-11
     Gradient error          =      1.6E-26
     Cell gradient error     =      4.5E-09

     bfgs converged in   7 scf cycles and   6 bfgs steps
     (criteria: energy <  1.0E-04 Ry, force <  1.0E-08Ry/Bohr, cell <  1.0E-03kbar)

     End of BFGS Geometry Optimization

     Final enthalpy =     -22.7607879591 Ry

     File ./work/LiC418.bfgs deleted, as requested
Begin final coordinates
     new unit-cell volume =    736.33737 a.u.^3 (   109.11394 Ang^3 )
     density =      0.36557 g/cm^3

CELL_PARAMETERS (alat=  4.18000000)
   1.096148290  -0.000000000   0.000000000
  -0.548074145   0.949292265   0.000000000
   0.000000000   0.000000000   9.688995215

ATOMIC_POSITIONS (crystal)
C             0.3333333333        0.6666666667        0.5000000000
C             0.6666666667        0.3333333333        0.5000000000
End final coordinates

     Writing output data file ./work/LiC418.save/

     Final scf calculation at the relaxed structure.
     The G-vectors are recalculated for the final unit cell
     Results may differ from those at the preceding step.

     bravais-lattice index     =            4
     lattice parameter (alat)  =       4.1800  a.u.
     unit-cell volume          =     736.3374 (a.u.)^3
     number of atoms/cell      =            2
     number of atomic types    =            1
     number of electrons       =         8.00
     number of Kohn-Sham states=            8
     kinetic-energy cutoff     =      50.0000  Ry
     charge density cutoff     =     200.0000  Ry
     scf convergence threshold =      1.0E-10
     mixing beta               =       0.7000
     number of iterations used =            8  plain     mixing
     press convergence thresh. =      1.0E-03
     Exchange-correlation= PBE
                           (   1   4   3   4   0   0   0)

     celldm(1)=   4.180000  celldm(2)=   0.000000  celldm(3)=   9.688995
     celldm(4)=   0.000000  celldm(5)=   0.000000  celldm(6)=   0.000000

     crystal axes: (cart. coord. in units of alat)
               a(1) = (   1.096148  -0.000000   0.000000 )
               a(2) = (  -0.548074   0.949292   0.000000 )
               a(3) = (   0.000000   0.000000   9.688995 )

     reciprocal axes: (cart. coord. in units 2 pi/alat)
               b(1) = (  0.912285  0.526708  0.000000 )
               b(2) = (  0.000000  1.053416  0.000000 )
               b(3) = (  0.000000  0.000000  0.103210 )

     PseudoPot. # 1 for C  read from file:
     /home/yhkim/qe-6.7/pseudo/ONCV1/1.2/C_ONCV_PBE-1.2.upf
     MD5 check sum: 1a5f83a7b1f58d24996abe00ed223ac6
     Pseudo is Norm-conserving, Zval =  4.0
     Generated using ONCVPSP code by D. R. Hamann
     Using radial grid of  602 points,  4 beta functions with:
                l(1) =   0
                l(2) =   0
                l(3) =   1
                l(4) =   1

     atomic species   valence    mass     pseudopotential
        C              4.00    12.01070     C ( 1.00)

     24 Sym. Ops., with inversion, found

   Cartesian axes

     site n.     atom                  positions (alat units)
         1           C   tau(   1) = (  -0.0000000   0.6328615   4.8444976  )
         2           C   tau(   2) = (   0.5480741   0.3164308   4.8444976  )

     number of k points=    27  Methfessel-Paxton smearing, width (Ry)=  0.0100
                       cart. coord. in units 2pi/alat
        k(    1) = (   0.0000000   0.0000000   0.0000000), wk =   0.0088889
        k(    2) = (   0.0000000   0.0702278   0.0000000), wk =   0.0533333
        k(    3) = (   0.0000000   0.1404555   0.0000000), wk =   0.0533333
        k(    4) = (   0.0000000   0.2106833   0.0000000), wk =   0.0533333
        k(    5) = (   0.0000000   0.2809110   0.0000000), wk =   0.0533333
        k(    6) = (   0.0000000   0.3511388   0.0000000), wk =   0.0533333
        k(    7) = (   0.0000000   0.4213665   0.0000000), wk =   0.0533333
        k(    8) = (   0.0000000   0.4915943   0.0000000), wk =   0.0533333
        k(    9) = (   0.0608190   0.1053416   0.0000000), wk =   0.0533333
        k(   10) = (   0.0608190   0.1755694   0.0000000), wk =   0.1066667
        k(   11) = (   0.0608190   0.2457971   0.0000000), wk =   0.1066667
        k(   12) = (   0.0608190   0.3160249   0.0000000), wk =   0.1066667
        k(   13) = (   0.0608190   0.3862527   0.0000000), wk =   0.1066667
        k(   14) = (   0.0608190   0.4564804   0.0000000), wk =   0.1066667
        k(   15) = (   0.0608190   0.5267082   0.0000000), wk =   0.0533333
        k(   16) = (   0.1216380   0.2106833   0.0000000), wk =   0.0533333
        k(   17) = (   0.1216380   0.2809110   0.0000000), wk =   0.1066667
        k(   18) = (   0.1216380   0.3511388   0.0000000), wk =   0.1066667
        k(   19) = (   0.1216380   0.4213665   0.0000000), wk =   0.1066667
        k(   20) = (   0.1216380   0.4915943   0.0000000), wk =   0.1066667
        k(   21) = (   0.1824571   0.3160249   0.0000000), wk =   0.0533333
        k(   22) = (   0.1824571   0.3862527   0.0000000), wk =   0.1066667
        k(   23) = (   0.1824571   0.4564804   0.0000000), wk =   0.1066667
        k(   24) = (   0.1824571   0.5267082   0.0000000), wk =   0.0533333
        k(   25) = (   0.2432761   0.4213665   0.0000000), wk =   0.0533333
        k(   26) = (   0.2432761   0.4915943   0.0000000), wk =   0.1066667
        k(   27) = (   0.3040951   0.5267082   0.0000000), wk =   0.0177778

     Initial potential from superposition of free atoms

     starting charge    7.98607, renormalised to    8.00000

     negative rho (up, down):  1.102E-04 0.000E+00
     Starting wfcs are random

     Self-consistent Calculation

     iteration #  1     ecut=    50.00 Ry     beta= 0.70
     Davidson diagonalization with overlap
     c_bands:  5 eigenvalues not converged
     c_bands:  2 eigenvalues not converged
     c_bands:  5 eigenvalues not converged
     c_bands:  5 eigenvalues not converged
     c_bands:  5 eigenvalues not converged
     c_bands:  4 eigenvalues not converged
     c_bands:  1 eigenvalues not converged
     c_bands:  3 eigenvalues not converged
     c_bands:  2 eigenvalues not converged
     c_bands:  5 eigenvalues not converged
     c_bands:  5 eigenvalues not converged
     c_bands:  4 eigenvalues not converged
     c_bands:  3 eigenvalues not converged
     c_bands:  2 eigenvalues not converged
     c_bands:  2 eigenvalues not converged
     c_bands:  4 eigenvalues not converged
     c_bands:  4 eigenvalues not converged
     c_bands:  4 eigenvalues not converged
     c_bands:  3 eigenvalues not converged
     c_bands:  3 eigenvalues not converged
     c_bands:  4 eigenvalues not converged
     c_bands:  3 eigenvalues not converged
     c_bands:  3 eigenvalues not converged
     c_bands:  3 eigenvalues not converged
     c_bands:  3 eigenvalues not converged
     c_bands:  3 eigenvalues not converged
     c_bands:  3 eigenvalues not converged
     ethr =  1.00E-06,  avg # of iterations = 21.5

[...]

     negative rho (up, down):  2.728E-06 0.000E+00

[...]

     total energy              =     -22.78783933 Ry
     estimated scf accuracy    <          1.1E-09 Ry

     iteration #  7     ecut=    50.00 Ry     beta= 0.70
     Davidson diagonalization with overlap
     ethr =  1.39E-11,  avg # of iterations =  3.4

     End of self-consistent calculation

[...]

          k = 0.3041 0.5267 0.0000 (  4395 PWs)   bands (ev):

   -16.8770 -16.8770 -15.0709  -4.0953  -4.0953   6.6062   9.1211   9.1218

     the Fermi energy is    -4.0953 ev

!    total energy              =     -22.78783933 Ry
     estimated scf accuracy    <          8.6E-12 Ry
     smearing contrib. (-TS)   =      -0.00005015 Ry
     internal energy E=F+TS    =     -22.78778918 Ry

     The total energy is F=E-TS. E is the sum of the following terms:
     one-electron contribution =    -400.20275968 Ry
     hartree contribution      =     200.75477782 Ry
     xc contribution           =      -7.08310013 Ry
     ewald contribution        =     183.74329281 Ry

     convergence has been achieved in   7 iterations

     Forces acting on atoms (cartesian axes, Ry/au):

     atom    1 type  1   force =     0.00000000    0.00000000    0.00000000
     atom    2 type  1   force =     0.00000000    0.00000000    0.00000000

     Total force =     0.000000     Total SCF correction =     0.000000

     Computing stress (Cartesian axis) and pressure

          total   stress  (Ry/bohr**3)                   (kbar)     P=        6.55
   0.00012300   0.00000000  -0.00000000           18.09        0.00       -0.00
   0.00000000   0.00012300   0.00000000            0.00       18.09        0.00
   0.00000000   0.00000000  -0.00011253            0.00        0.00      -16.55

     Writing output data file ./work/LiC418.save/

     General routines

     Parallel routines

   This run was terminated on:  14: 4:25  19Jan2024

   JOB DONE.