     Program PWSCF v.6.7MaX starts on 19Jan2024 at 15:43:44

     R & G space division:  proc/nbgrp/npool/nimage =      32
     Waiting for input...
     Reading input from standard input

     Current dimensions of program PWSCF are:
     Max number of different atomic species (ntypx) = 10
     Max number of k-points (npk) =  40000
     Max angular momentum in pseudopotentials (lmaxx) =  3
     Message from routine read_pp_mesh:
     mesh size missing, using the one in header

     Subspace diagonalization in iterative solution of the eigenvalue problem:
     a serial algorithm will be used

     bravais-lattice index     =            4
     lattice parameter (alat)  =       3.9000  a.u.
     unit-cell volume          =     533.4760 (a.u.)^3
     number of atoms/cell      =            2
     number of atomic types    =            1
     number of electrons       =         8.00
     number of Kohn-Sham states=            8
     kinetic-energy cutoff     =      50.0000  Ry
     charge density cutoff     =     200.0000  Ry
     scf convergence threshold =      1.0E-08
     mixing beta               =       0.7000
     number of iterations used =            8  plain     mixing
     energy convergence thresh.=      1.0E-04
     force convergence thresh. =      1.0E-08
     press convergence thresh. =      1.0E-03
     Exchange-correlation= PBE
                           (   1   4   3   4   0   0   0)
     nstep                     =           50

     celldm(1)=   3.900000  celldm(2)=   0.000000  celldm(3)=  10.384615
     celldm(4)=   0.000000  celldm(5)=   0.000000  celldm(6)=   0.000000

     crystal axes: (cart. coord. in units of alat)
               a(1) = (   1.000000   0.000000   0.000000 )
               a(2) = (  -0.500000   0.866025   0.000000 )
               a(3) = (   0.000000   0.000000  10.384615 )

     reciprocal axes: (cart. coord. in units 2 pi/alat)
               b(1) = (  1.000000  0.577350  0.000000 )
               b(2) = (  0.000000  1.154701  0.000000 )
               b(3) = (  0.000000  0.000000  0.096296 )

     PseudoPot. # 1 for C  read from file:
     /home/yhkim/qe-6.7/pseudo/ONCV1/1.2/C_ONCV_PBE-1.2.upf
     MD5 check sum: 1a5f83a7b1f58d24996abe00ed223ac6
     Pseudo is Norm-conserving, Zval =  4.0
     Generated using ONCVPSP code by D. R. Hamann
     Using radial grid of  602 points,  4 beta functions with:
                l(1) =   0
                l(2) =   0
                l(3) =   1
                l(4) =   1

     atomic species   valence    mass     pseudopotential
        C              4.00    12.01070     C ( 1.00)

     24 Sym. Ops., with inversion, found

   Cartesian axes

     site n.     atom                  positions (alat units)
         1           C   tau(   1) = (  -0.0000000   0.5773503   5.1923077  )
         2           C   tau(   2) = (   0.5000000   0.2886751   5.1923077  )

     number of k points=    27  Methfessel-Paxton smearing, width (Ry)=  0.0100
                       cart. coord. in units 2pi/alat
        k(    1) = (   0.0000000   0.0000000   0.0000000), wk =   0.0088889
        k(    2) = (   0.0000000   0.0769800   0.0000000), wk =   0.0533333
        k(    3) = (   0.0000000   0.1539601   0.0000000), wk =   0.0533333
        k(    4) = (   0.0000000   0.2309401   0.0000000), wk =   0.0533333
        k(    5) = (   0.0000000   0.3079201   0.0000000), wk =   0.0533333
        k(    6) = (   0.0000000   0.3849002   0.0000000), wk =   0.0533333
        k(    7) = (   0.0000000   0.4618802   0.0000000), wk =   0.0533333
        k(    8) = (   0.0000000   0.5388603   0.0000000), wk =   0.0533333
        k(    9) = (   0.0666667   0.1154701   0.0000000), wk =   0.0533333
        k(   10) = (   0.0666667   0.1924501   0.0000000), wk =   0.1066667
        k(   11) = (   0.0666667   0.2694301   0.0000000), wk =   0.1066667
        k(   12) = (   0.0666667   0.3464102   0.0000000), wk =   0.1066667
        k(   13) = (   0.0666667   0.4233902   0.0000000), wk =   0.1066667
        k(   14) = (   0.0666667   0.5003702   0.0000000), wk =   0.1066667
        k(   15) = (   0.0666667   0.5773503   0.0000000), wk =   0.0533333
        k(   16) = (   0.1333333   0.2309401   0.0000000), wk =   0.0533333
        k(   17) = (   0.1333333   0.3079201   0.0000000), wk =   0.1066667
        k(   18) = (   0.1333333   0.3849002   0.0000000), wk =   0.1066667
        k(   19) = (   0.1333333   0.4618802   0.0000000), wk =   0.1066667
        k(   20) = (   0.1333333   0.5388603   0.0000000), wk =   0.1066667
        k(   21) = (   0.2000000   0.3464102   0.0000000), wk =   0.0533333
        k(   22) = (   0.2000000   0.4233902   0.0000000), wk =   0.1066667
        k(   23) = (   0.2000000   0.5003702   0.0000000), wk =   0.1066667
        k(   24) = (   0.2000000   0.5773503   0.0000000), wk =   0.0533333
        k(   25) = (   0.2666667   0.4618802   0.0000000), wk =   0.0533333
        k(   26) = (   0.2666667   0.5388603   0.0000000), wk =   0.1066667
        k(   27) = (   0.3333333   0.5773503   0.0000000), wk =   0.0177778

     Initial potential from superposition of free atoms

     starting charge    7.98607, renormalised to    8.00000

     negative rho (up, down):  9.930E-05 0.000E+00
     Starting wfcs are random

     Self-consistent Calculation

     iteration #  1     ecut=    50.00 Ry     beta= 0.70
     Davidson diagonalization with overlap
     ethr =  1.00E-02,  avg # of iterations = 12.3

     negative rho (up, down):  6.965E-07 0.000E+00

     total energy              =     -22.28166367 Ry
     estimated scf accuracy    <       0.63081256 Ry

[...]

     End of self-consistent calculation

          k = 0.0000 0.0000 0.0000 (  3241 PWs)   bands (ev):

   -26.4953 -14.2738  -4.7664  -1.0580  -0.2173   0.5411   0.8935   2.2139

[...]

     the Fermi energy is    -2.2655 ev

!    total energy              =     -22.37926981 Ry
     estimated scf accuracy    <          2.8E-09 Ry
     smearing contrib. (-TS)   =      -0.00003668 Ry
     internal energy E=F+TS    =     -22.37923313 Ry

     The total energy is F=E-TS. E is the sum of the following terms:
     one-electron contribution =    -554.99413055 Ry
     hartree contribution      =     278.61061275 Ry
     xc contribution           =      -7.86710161 Ry
     ewald contribution        =     261.87138628 Ry

     convergence has been achieved in   6 iterations

     Forces acting on atoms (cartesian axes, Ry/au):

     atom    1 type  1   force =    -0.00000000   -0.00000000    0.00000000
     atom    2 type  1   force =     0.00000000    0.00000000    0.00000000

     Total force =     0.000000     Total SCF correction =     0.000000

     Computing stress (Cartesian axis) and pressure

          total   stress  (Ry/bohr**3)                   (kbar)     P=      442.43
   0.00459796  -0.00000000  -0.00000000          676.38       -0.00       -0.00
  -0.00000000   0.00459796   0.00000000           -0.00      676.38        0.00
   0.00000000   0.00000000  -0.00017320            0.00        0.00      -25.48

     BFGS Geometry Optimization
     Energy error            =      0.0E+00
     Gradient error          =      1.7E-26
     Cell gradient error     =      4.6E-03

     number of scf cycles    =   1
     number of bfgs steps    =   0

     enthalpy new            =     -22.3792698073 Ry

     new trust radius        =       0.5000000000 bohr
     new conv_thr            =       0.0000000100 Ry

     new unit-cell volume =    655.21147 a.u.^3 (    97.09232 Ang^3 )
     density =      0.41083 g/cm^3

CELL_PARAMETERS (alat=  3.90000000)
   1.108238703  -0.000000000   0.000000000
  -0.554119351   0.959762870   0.000000000
   0.000000000   0.000000000  10.384615385

ATOMIC_POSITIONS (crystal)
C             0.3333333333        0.6666666667        0.5000000000
C             0.6666666667        0.3333333333        0.5000000000

     Writing output data file ./work/LiC390.save/
     NEW-OLD atomic charge density approx. for the potential

     negative rho (up, down):  2.823E-04 0.000E+00
     extrapolated charge    9.48378, renormalised to    8.00000

[...]

     iteration #  1     ecut=    50.00 Ry     beta= 0.70
     Davidson diagonalization with overlap
     c_bands:  5 eigenvalues not converged
     c_bands:  5 eigenvalues not converged
     c_bands:  5 eigenvalues not converged
     c_bands:  5 eigenvalues not converged
     c_bands:  5 eigenvalues not converged
     c_bands:  3 eigenvalues not converged
     c_bands:  5 eigenvalues not converged
     c_bands:  4 eigenvalues not converged
     c_bands:  5 eigenvalues not converged
     c_bands:  5 eigenvalues not converged
     c_bands:  5 eigenvalues not converged
     c_bands:  5 eigenvalues not converged
     c_bands:  5 eigenvalues not converged
     c_bands:  5 eigenvalues not converged
     c_bands:  3 eigenvalues not converged
     c_bands:  5 eigenvalues not converged
     c_bands:  5 eigenvalues not converged
     c_bands:  3 eigenvalues not converged
     c_bands:  5 eigenvalues not converged
     c_bands:  4 eigenvalues not converged
     c_bands:  5 eigenvalues not converged
     c_bands:  5 eigenvalues not converged
     c_bands:  5 eigenvalues not converged
     c_bands:  4 eigenvalues not converged
     c_bands:  4 eigenvalues not converged
     c_bands:  5 eigenvalues not converged
     ethr =  1.00E-06,  avg # of iterations = 31.4

[...]

     Energy error            =      3.1E-01
     Gradient error          =      0.0E+00
     Cell gradient error     =      1.0E-03

[...]

     enthalpy old            =     -22.3792698073 Ry
     enthalpy new            =     -22.6925509130 Ry

     CASE: enthalpy_new < enthalpy_old

[...]

     negative rho (up, down):  5.341E-06 0.000E+00
     extrapolated charge    8.04448, renormalised to    8.00000

[...]

     Writing output data file ./work/LiC390.save/
     NEW-OLD atomic charge density approx. for the potential
     extrapolated charge    8.00301, renormalised to    8.00000

[...]

     Threshold (ethr) on eigenvalues was too large:
     Diagonalizing with lowered threshold

     Davidson diagonalization with overlap
     ethr =  3.51E-08,  avg # of iterations =  1.0

[...]

     CASE: enthalpy_new < enthalpy_old

     small trust_radius: resetting bfgs history

     new trust radius        =       0.0000045142 bohr
     new conv_thr            =            1.0E-10 Ry

[...]

     Writing output data file ./work/LiC390.save/
     NEW-OLD atomic charge density approx. for the potential
     extrapolated charge    8.00001, renormalised to    8.00000

[...]

     Energy error            =      6.2E-11
     Gradient error          =      1.5E-26
     Cell gradient error     =      3.2E-08

     number of scf cycles    =   7
     number of bfgs steps    =   6

     enthalpy old            =     -22.7259145751 Ry
     enthalpy new            =     -22.7259145750 Ry

     CASE: enthalpy_new > enthalpy_old

     new trust radius        =       0.0000008967 bohr

     trust_radius < trust_radius_min

     resetting bfgs history

     Message from routine bfgs:
     history already reset at previous step: stopping
     new conv_thr            =            1.0E-10 Ry

     new unit-cell volume =    725.56202 a.u.^3 (   107.51720 Ang^3 )
     density =      0.37100 g/cm^3

[...]

ATOMIC_POSITIONS (crystal)
C             0.3333333333        0.6666666667        0.5000000000
C             0.6666666667        0.3333333333        0.5000000000

     Writing output data file ./work/LiC390.save/
     NEW-OLD atomic charge density approx. for the potential

[...]

     Threshold (ethr) on eigenvalues was too large:
     Diagonalizing with lowered threshold

     Davidson diagonalization with overlap
     ethr =  1.09E-12,  avg # of iterations =  1.8

[...]

     Message from routine bfgs:
     history already reset at previous step: stopping
     Energy error            =      2.7E-11
     Gradient error          =      1.5E-26
     Cell gradient error     =      1.4E-08

     bfgs converged in   8 scf cycles and   6 bfgs steps
     (criteria: energy <  1.0E-04 Ry, force <  1.0E-08Ry/Bohr, cell <  1.0E-03kbar)

     End of BFGS Geometry Optimization

     Final enthalpy =     -22.7259145750 Ry

     File ./work/LiC390.bfgs deleted, as requested
Begin final coordinates
     new unit-cell volume =    725.56202 a.u.^3 (   107.51720 Ang^3 )
     density =      0.37100 g/cm^3

CELL_PARAMETERS (alat=  3.90000000)
   1.166218261  -0.000000000   0.000000000
  -0.583109130   1.009974640   0.000000000
   0.000000000   0.000000000  10.384615385

ATOMIC_POSITIONS (crystal)
C             0.3333333333        0.6666666667        0.5000000000
C             0.6666666667        0.3333333333        0.5000000000
End final coordinates

     Writing output data file ./work/LiC390.save/

     Final scf calculation at the relaxed structure.
     The G-vectors are recalculated for the final unit cell
     Results may differ from those at the preceding step.

     bravais-lattice index     =            4
     lattice parameter (alat)  =       3.9000  a.u.
     unit-cell volume          =     725.5620 (a.u.)^3
     number of atoms/cell      =            2
     number of atomic types    =            1
     number of electrons       =         8.00
     number of Kohn-Sham states=            8
     kinetic-energy cutoff     =      50.0000  Ry
     charge density cutoff     =     200.0000  Ry
     scf convergence threshold =      1.0E-10
     mixing beta               =       0.7000
     number of iterations used =            8  plain     mixing
     press convergence thresh. =      1.0E-03
     Exchange-correlation= PBE
                           (   1   4   3   4   0   0   0)

     celldm(1)=   3.900000  celldm(2)=   0.000000  celldm(3)=  10.384615
     celldm(4)=   0.000000  celldm(5)=   0.000000  celldm(6)=   0.000000

     crystal axes: (cart. coord. in units of alat)
               a(1) = (   1.166218  -0.000000   0.000000 )
               a(2) = (  -0.583109   1.009975   0.000000 )
               a(3) = (   0.000000   0.000000  10.384615 )

     reciprocal axes: (cart. coord. in units 2 pi/alat)
               b(1) = (  0.857472  0.495062  0.000000 )
               b(2) = (  0.000000  0.990124  0.000000 )
               b(3) = (  0.000000  0.000000  0.096296 )

     PseudoPot. # 1 for C  read from file:
     /home/yhkim/qe-6.7/pseudo/ONCV1/1.2/C_ONCV_PBE-1.2.upf
     MD5 check sum: 1a5f83a7b1f58d24996abe00ed223ac6
     Pseudo is Norm-conserving, Zval =  4.0
     Generated using ONCVPSP code by D. R. Hamann
     Using radial grid of  602 points,  4 beta functions with:
                l(1) =   0
                l(2) =   0
                l(3) =   1
                l(4) =   1

     atomic species   valence    mass     pseudopotential
        C              4.00    12.01070     C ( 1.00)

     24 Sym. Ops., with inversion, found

   Cartesian axes

     site n.     atom                  positions (alat units)
         1           C   tau(   1) = (  -0.0000000   0.6733164   5.1923077  )
         2           C   tau(   2) = (   0.5831091   0.3366582   5.1923077  )

     number of k points=    27  Methfessel-Paxton smearing, width (Ry)=  0.0100
                       cart. coord. in units 2pi/alat
        k(    1) = (   0.0000000   0.0000000   0.0000000), wk =   0.0088889
        k(    2) = (   0.0000000   0.0660083   0.0000000), wk =   0.0533333
        k(    3) = (   0.0000000   0.1320165   0.0000000), wk =   0.0533333
        k(    4) = (   0.0000000   0.1980248   0.0000000), wk =   0.0533333
        k(    5) = (   0.0000000   0.2640330   0.0000000), wk =   0.0533333
        k(    6) = (   0.0000000   0.3300413   0.0000000), wk =   0.0533333
        k(    7) = (   0.0000000   0.3960495   0.0000000), wk =   0.0533333
        k(    8) = (   0.0000000   0.4620578   0.0000000), wk =   0.0533333
        k(    9) = (   0.0571648   0.0990124   0.0000000), wk =   0.0533333
        k(   10) = (   0.0571648   0.1650206   0.0000000), wk =   0.1066667
        k(   11) = (   0.0571648   0.2310289   0.0000000), wk =   0.1066667
        k(   12) = (   0.0571648   0.2970372   0.0000000), wk =   0.1066667
        k(   13) = (   0.0571648   0.3630454   0.0000000), wk =   0.1066667
        k(   14) = (   0.0571648   0.4290537   0.0000000), wk =   0.1066667
        k(   15) = (   0.0571648   0.4950619   0.0000000), wk =   0.0533333
        k(   16) = (   0.1143297   0.1980248   0.0000000), wk =   0.0533333
        k(   17) = (   0.1143297   0.2640330   0.0000000), wk =   0.1066667
        k(   18) = (   0.1143297   0.3300413   0.0000000), wk =   0.1066667
        k(   19) = (   0.1143297   0.3960495   0.0000000), wk =   0.1066667
        k(   20) = (   0.1143297   0.4620578   0.0000000), wk =   0.1066667
        k(   21) = (   0.1714945   0.2970372   0.0000000), wk =   0.0533333
        k(   22) = (   0.1714945   0.3630454   0.0000000), wk =   0.1066667
        k(   23) = (   0.1714945   0.4290537   0.0000000), wk =   0.1066667
        k(   24) = (   0.1714945   0.4950619   0.0000000), wk =   0.0533333
        k(   25) = (   0.2286593   0.3960495   0.0000000), wk =   0.0533333
        k(   26) = (   0.2286593   0.4620578   0.0000000), wk =   0.1066667
        k(   27) = (   0.2858241   0.4950619   0.0000000), wk =   0.0177778

     Initial potential from superposition of free atoms

     starting charge    7.98607, renormalised to    8.00000

     negative rho (up, down):  1.112E-04 0.000E+00
     Starting wfcs are random

     Self-consistent Calculation

[...]

     negative rho (up, down):  2.759E-06 0.000E+00

[...]

     iteration #  4     ecut=    50.00 Ry     beta= 0.70
     Davidson diagonalization with overlap
     c_bands:  1 eigenvalues not converged
     ethr =  2.24E-06,  avg # of iterations =  5.3

[...]

     total energy              =     -22.78450396 Ry
     estimated scf accuracy    <          8.8E-10 Ry

     iteration #  7     ecut=    50.00 Ry     beta= 0.70
     Davidson diagonalization with overlap
     ethr =  1.10E-11,  avg # of iterations =  3.5

     End of self-consistent calculation

[...]

          k = 0.2858 0.4951 0.0000 (  4335 PWs)   bands (ev):

   -16.8749 -16.8749 -15.1712  -4.0276  -4.0276   6.7078   9.3258   9.3260

     the Fermi energy is    -4.0276 ev

!    total energy              =     -22.78450396 Ry
     estimated scf accuracy    <          1.3E-11 Ry
     smearing contrib. (-TS)   =      -0.00005015 Ry
     internal energy E=F+TS    =     -22.78445381 Ry

     The total energy is F=E-TS. E is the sum of the following terms:
     one-electron contribution =    -406.21977685 Ry
     hartree contribution      =     203.77932246 Ry
     xc contribution           =      -7.11565559 Ry
     ewald contribution        =     186.77165617 Ry

     convergence has been achieved in   7 iterations

     Forces acting on atoms (cartesian axes, Ry/au):

     atom    1 type  1   force =    -0.00000000   -0.00000000    0.00000000
     atom    2 type  1   force =     0.00000000    0.00000000    0.00000000

     Total force =     0.000000     Total SCF correction =     0.000000

     Computing stress (Cartesian axis) and pressure

          total   stress  (Ry/bohr**3)                   (kbar)     P=       17.22
   0.00023297  -0.00000000   0.00000000           34.27       -0.00        0.00
  -0.00000000   0.00023297   0.00000000           -0.00       34.27        0.00
  -0.00000000  -0.00000000  -0.00011470           -0.00       -0.00      -16.87

     Writing output data file ./work/LiC390.save/

     General routines

     Parallel routines

   This run was terminated on:  15:44:13  19Jan2024

   JOB DONE.