     Program PWSCF v.6.7MaX starts on 19Jan2024 at 14: 8:48

     R & G space division:  proc/nbgrp/npool/nimage =      32
     Waiting for input...
     Reading input from standard input

     Current dimensions of program PWSCF are:
     Max number of different atomic species (ntypx) = 10
     Max number of k-points (npk) =  40000
     Max angular momentum in pseudopotentials (lmaxx) =  3
     Message from routine read_pp_mesh:
     mesh size missing, using the one in header

     Subspace diagonalization in iterative solution of the eigenvalue problem:
     a serial algorithm will be used

     bravais-lattice index     =            4
     lattice parameter (alat)  =       4.3000  a.u.
     unit-cell volume          =     648.5188 (a.u.)^3
     number of atoms/cell      =            2
     number of atomic types    =            1
     number of electrons       =         8.00
     number of Kohn-Sham states=            8
     kinetic-energy cutoff     =      50.0000  Ry
     charge density cutoff     =     200.0000  Ry
     scf convergence threshold =      1.0E-08
     mixing beta               =       0.7000
     number of iterations used =            8  plain     mixing
     energy convergence thresh.=      1.0E-04
     force convergence thresh. =      1.0E-08
     press convergence thresh. =      1.0E-03
     Exchange-correlation= PBE
                           (   1   4   3   4   0   0   0)
     nstep                     =           50

     celldm(1)=   4.300000  celldm(2)=   0.000000  celldm(3)=   9.418605
     celldm(4)=   0.000000  celldm(5)=   0.000000  celldm(6)=   0.000000

     crystal axes: (cart. coord. in units of alat)
               a(1) = (   1.000000   0.000000   0.000000 )
               a(2) = (  -0.500000   0.866025   0.000000 )
               a(3) = (   0.000000   0.000000   9.418605 )

     reciprocal axes: (cart. coord. in units 2 pi/alat)
               b(1) = (  1.000000  0.577350  0.000000 )
               b(2) = (  0.000000  1.154701  0.000000 )
               b(3) = (  0.000000  0.000000  0.106173 )

     PseudoPot. # 1 for C  read from file:
     /home/yhkim/qe-6.7/pseudo/ONCV1/1.2/C_ONCV_PBE-1.2.upf
     MD5 check sum: 1a5f83a7b1f58d24996abe00ed223ac6
     Pseudo is Norm-conserving, Zval =  4.0
     Generated using ONCVPSP code by D. R. Hamann
     Using radial grid of  602 points,  4 beta functions with:
                l(1) =   0
                l(2) =   0
                l(3) =   1
                l(4) =   1

     atomic species   valence    mass     pseudopotential
        C              4.00    12.01070     C ( 1.00)

     24 Sym. Ops., with inversion, found

   Cartesian axes

     site n.     atom                  positions (alat units)
         1           C   tau(   1) = (  -0.0000000   0.5773503   4.7093023  )
         2           C   tau(   2) = (   0.5000000   0.2886751   4.7093023  )

     number of k points=    27  Methfessel-Paxton smearing, width (Ry)=  0.0100
                       cart. coord. in units 2pi/alat
        k(    1) = (   0.0000000   0.0000000   0.0000000), wk =   0.0088889
        k(    2) = (   0.0000000   0.0769800   0.0000000), wk =   0.0533333
        k(    3) = (   0.0000000   0.1539601   0.0000000), wk =   0.0533333
        k(    4) = (   0.0000000   0.2309401   0.0000000), wk =   0.0533333
        k(    5) = (   0.0000000   0.3079201   0.0000000), wk =   0.0533333
        k(    6) = (   0.0000000   0.3849002   0.0000000), wk =   0.0533333
        k(    7) = (   0.0000000   0.4618802   0.0000000), wk =   0.0533333
        k(    8) = (   0.0000000   0.5388603   0.0000000), wk =   0.0533333
        k(    9) = (   0.0666667   0.1154701   0.0000000), wk =   0.0533333
        k(   10) = (   0.0666667   0.1924501   0.0000000), wk =   0.1066667
        k(   11) = (   0.0666667   0.2694301   0.0000000), wk =   0.1066667
        k(   12) = (   0.0666667   0.3464102   0.0000000), wk =   0.1066667
        k(   13) = (   0.0666667   0.4233902   0.0000000), wk =   0.1066667
        k(   14) = (   0.0666667   0.5003702   0.0000000), wk =   0.1066667
        k(   15) = (   0.0666667   0.5773503   0.0000000), wk =   0.0533333
        k(   16) = (   0.1333333   0.2309401   0.0000000), wk =   0.0533333
        k(   17) = (   0.1333333   0.3079201   0.0000000), wk =   0.1066667
        k(   18) = (   0.1333333   0.3849002   0.0000000), wk =   0.1066667
        k(   19) = (   0.1333333   0.4618802   0.0000000), wk =   0.1066667
        k(   20) = (   0.1333333   0.5388603   0.0000000), wk =   0.1066667
        k(   21) = (   0.2000000   0.3464102   0.0000000), wk =   0.0533333
        k(   22) = (   0.2000000   0.4233902   0.0000000), wk =   0.1066667
        k(   23) = (   0.2000000   0.5003702   0.0000000), wk =   0.1066667
        k(   24) = (   0.2000000   0.5773503   0.0000000), wk =   0.0533333
        k(   25) = (   0.2666667   0.4618802   0.0000000), wk =   0.0533333
        k(   26) = (   0.2666667   0.5388603   0.0000000), wk =   0.1066667
        k(   27) = (   0.3333333   0.5773503   0.0000000), wk =   0.0177778

     Initial potential from superposition of free atoms

     starting charge    7.98607, renormalised to    8.00000

     negative rho (up, down):  1.046E-04 0.000E+00
     Starting wfcs are random

     Self-consistent Calculation

     iteration #  1     ecut=    50.00 Ry     beta= 0.70
     Davidson diagonalization with overlap
     ethr =  1.00E-02,  avg # of iterations = 11.8

     negative rho (up, down):  8.049E-08 0.000E+00

     total energy              =     -22.66586262 Ry
     estimated scf accuracy    <       0.32054796 Ry

[...]

     End of self-consistent calculation

          k = 0.0000 0.0000 0.0000 (  3871 PWs)   bands (ev):

   -25.0503 -12.8813  -6.4103  -1.0236  -0.2091   0.5652   0.9208   2.2454

[...]

     the Fermi energy is    -3.4463 ev

!    total energy              =     -22.71521029 Ry
     estimated scf accuracy    <          5.7E-09 Ry
     smearing contrib. (-TS)   =      -0.00003668 Ry
     internal energy E=F+TS    =     -22.71517361 Ry

     The total energy is F=E-TS. E is the sum of the following terms:
     one-electron contribution =    -455.15090806 Ry
     hartree contribution      =     228.37584188 Ry
     xc contribution           =      -7.37285770 Ry
     ewald contribution        =     211.43275026 Ry

     convergence has been achieved in   6 iterations

     Forces acting on atoms (cartesian axes, Ry/au):

     atom    1 type  1   force =     0.00000000    0.00000000    0.00000000
     atom    2 type  1   force =     0.00000000    0.00000000    0.00000000

     Total force =     0.000000     Total SCF correction =     0.000000

     Computing stress (Cartesian axis) and pressure

          total   stress  (Ry/bohr**3)                   (kbar)     P=      122.54
   0.00131562  -0.00000000   0.00000000          193.53       -0.00        0.00
  -0.00000000   0.00131562   0.00000000           -0.00      193.53        0.00
   0.00000000   0.00000000  -0.00013216            0.00        0.00      -19.44

     BFGS Geometry Optimization
     Energy error            =      0.0E+00
     Gradient error          =      0.0E+00
     Cell gradient error     =      1.3E-03

     number of scf cycles    =   1
     number of bfgs steps    =   0

     enthalpy new            =     -22.7152102902 Ry

     new trust radius        =       0.1675179814 bohr
     new conv_thr            =       0.0000000100 Ry

     new unit-cell volume =    691.88053 a.u.^3 (   102.52612 Ang^3 )
     density =      0.38906 g/cm^3

CELL_PARAMETERS (alat=  4.30000000)
   1.032890476  -0.000000000   0.000000000
  -0.516445238   0.894509391   0.000000000
   0.000000000   0.000000000   9.418604651

ATOMIC_POSITIONS (crystal)
C             0.3333333333        0.6666666667        0.5000000000
C             0.6666666667        0.3333333333        0.5000000000

     Writing output data file ./work/LiC430.save/
     NEW-OLD atomic charge density approx. for the potential

     negative rho (up, down):  8.511E-05 0.000E+00
     extrapolated charge    8.50051, renormalised to    8.00000

[...]

     iteration #  1     ecut=    50.00 Ry     beta= 0.70
     Davidson diagonalization with overlap
     c_bands:  2 eigenvalues not converged
     c_bands:  2 eigenvalues not converged
     c_bands:  2 eigenvalues not converged
     c_bands:  2 eigenvalues not converged
     c_bands:  3 eigenvalues not converged
     c_bands:  1 eigenvalues not converged
     c_bands:  2 eigenvalues not converged
     c_bands:  2 eigenvalues not converged
     c_bands:  3 eigenvalues not converged
     c_bands:  2 eigenvalues not converged
     c_bands:  3 eigenvalues not converged
     c_bands:  2 eigenvalues not converged
     c_bands:  2 eigenvalues not converged
     c_bands:  2 eigenvalues not converged
     c_bands:  4 eigenvalues not converged
     c_bands:  4 eigenvalues not converged
     c_bands:  5 eigenvalues not converged
     c_bands:  3 eigenvalues not converged
     c_bands:  5 eigenvalues not converged
     c_bands:  5 eigenvalues not converged
     c_bands:  5 eigenvalues not converged
     c_bands:  5 eigenvalues not converged
     c_bands:  5 eigenvalues not converged
     ethr =  1.00E-06,  avg # of iterations = 20.2

[...]

     Energy error            =      4.3E-02
     Gradient error          =      1.7E-26
     Cell gradient error     =      5.9E-04

[...]

     enthalpy old            =     -22.7152102902 Ry
     enthalpy new            =     -22.7577894391 Ry

     CASE: enthalpy_new < enthalpy_old

[...]

     Writing output data file ./work/LiC430.save/
     NEW-OLD atomic charge density approx. for the potential

     negative rho (up, down):  4.212E-06 0.000E+00
     extrapolated charge    8.09166, renormalised to    8.00000

[...]

     Writing output data file ./work/LiC430.save/
     NEW-OLD atomic charge density approx. for the potential
     extrapolated charge    8.01110, renormalised to    8.00000

[...]

     small trust_radius: resetting bfgs history

[...]

     Threshold (ethr) on eigenvalues was too large:
     Diagonalizing with lowered threshold

     Davidson diagonalization with overlap
     ethr =  3.14E-11,  avg # of iterations =  1.7

[...]

     Energy error            =      1.9E-09
     Gradient error          =      0.0E+00
     Cell gradient error     =      1.5E-07

     number of scf cycles    =   6
     number of bfgs steps    =   5

     enthalpy old            =     -22.7714275045 Ry
     enthalpy new            =     -22.7714275063 Ry

     CASE: enthalpy_new < enthalpy_old

     Message from routine bfgs:
     history already reset at previous step: stopping
     small trust_radius: resetting bfgs history

     new trust radius        =       0.0000198967 bohr
     new conv_thr            =            1.0E-10 Ry

     new unit-cell volume =    740.44649 a.u.^3 (   109.72285 Ang^3 )
     density =      0.36354 g/cm^3

[...]

ATOMIC_POSITIONS (crystal)
C             0.3333333333        0.6666666667        0.5000000000
C             0.6666666667        0.3333333333        0.5000000000

     Writing output data file ./work/LiC430.save/
     NEW-OLD atomic charge density approx. for the potential
     extrapolated charge    8.00006, renormalised to    8.00000

[...]

     Threshold (ethr) on eigenvalues was too large:
     Diagonalizing with lowered threshold

     Davidson diagonalization with overlap
     ethr =  1.16E-11,  avg # of iterations =  1.8

[...]

     Message from routine bfgs:
     history already reset at previous step: stopping
     Energy error            =      6.4E-10
     Gradient error          =      1.6E-26
     Cell gradient error     =      8.7E-08

     bfgs converged in   7 scf cycles and   6 bfgs steps
     (criteria: energy <  1.0E-04 Ry, force <  1.0E-08Ry/Bohr, cell <  1.0E-03kbar)

     End of BFGS Geometry Optimization

     Final enthalpy =     -22.7714275070 Ry

     File ./work/LiC430.bfgs deleted, as requested
Begin final coordinates
     new unit-cell volume =    740.44649 a.u.^3 (   109.72285 Ang^3 )
     density =      0.36354 g/cm^3

CELL_PARAMETERS (alat=  4.30000000)
   1.068527140  -0.000000000   0.000000000
  -0.534263570   0.925371648   0.000000000
   0.000000000   0.000000000   9.418604651

ATOMIC_POSITIONS (crystal)
C             0.3333333333        0.6666666667        0.5000000000
C             0.6666666667        0.3333333333        0.5000000000
End final coordinates

     Writing output data file ./work/LiC430.save/

     Final scf calculation at the relaxed structure.
     The G-vectors are recalculated for the final unit cell
     Results may differ from those at the preceding step.

     bravais-lattice index     =            4
     lattice parameter (alat)  =       4.3000  a.u.
     unit-cell volume          =     740.4465 (a.u.)^3
     number of atoms/cell      =            2
     number of atomic types    =            1
     number of electrons       =         8.00
     number of Kohn-Sham states=            8
     kinetic-energy cutoff     =      50.0000  Ry
     charge density cutoff     =     200.0000  Ry
     scf convergence threshold =      1.0E-10
     mixing beta               =       0.7000
     number of iterations used =            8  plain     mixing
     press convergence thresh. =      1.0E-03
     Exchange-correlation= PBE
                           (   1   4   3   4   0   0   0)

     celldm(1)=   4.300000  celldm(2)=   0.000000  celldm(3)=   9.418605
     celldm(4)=   0.000000  celldm(5)=   0.000000  celldm(6)=   0.000000

     crystal axes: (cart. coord. in units of alat)
               a(1) = (   1.068527  -0.000000   0.000000 )
               a(2) = (  -0.534264   0.925372   0.000000 )
               a(3) = (   0.000000   0.000000   9.418605 )

     reciprocal axes: (cart. coord. in units 2 pi/alat)
               b(1) = (  0.935868  0.540323  0.000000 )
               b(2) = (  0.000000  1.080647  0.000000 )
               b(3) = (  0.000000  0.000000  0.106173 )

     PseudoPot. # 1 for C  read from file:
     /home/yhkim/qe-6.7/pseudo/ONCV1/1.2/C_ONCV_PBE-1.2.upf
     MD5 check sum: 1a5f83a7b1f58d24996abe00ed223ac6
     Pseudo is Norm-conserving, Zval =  4.0
     Generated using ONCVPSP code by D. R. Hamann
     Using radial grid of  602 points,  4 beta functions with:
                l(1) =   0
                l(2) =   0
                l(3) =   1
                l(4) =   1

     atomic species   valence    mass     pseudopotential
        C              4.00    12.01070     C ( 1.00)

     24 Sym. Ops., with inversion, found

   Cartesian axes

     site n.     atom                  positions (alat units)
         1           C   tau(   1) = (  -0.0000000   0.6169144   4.7093023  )
         2           C   tau(   2) = (   0.5342636   0.3084572   4.7093023  )

     number of k points=    27  Methfessel-Paxton smearing, width (Ry)=  0.0100
                       cart. coord. in units 2pi/alat
        k(    1) = (   0.0000000   0.0000000   0.0000000), wk =   0.0088889
        k(    2) = (   0.0000000   0.0720431   0.0000000), wk =   0.0533333
        k(    3) = (   0.0000000   0.1440863   0.0000000), wk =   0.0533333
        k(    4) = (   0.0000000   0.2161294   0.0000000), wk =   0.0533333
        k(    5) = (   0.0000000   0.2881725   0.0000000), wk =   0.0533333
        k(    6) = (   0.0000000   0.3602156   0.0000000), wk =   0.0533333
        k(    7) = (   0.0000000   0.4322588   0.0000000), wk =   0.0533333
        k(    8) = (   0.0000000   0.5043019   0.0000000), wk =   0.0533333
        k(    9) = (   0.0623912   0.1080647   0.0000000), wk =   0.0533333
        k(   10) = (   0.0623912   0.1801078   0.0000000), wk =   0.1066667
        k(   11) = (   0.0623912   0.2521509   0.0000000), wk =   0.1066667
        k(   12) = (   0.0623912   0.3241941   0.0000000), wk =   0.1066667
        k(   13) = (   0.0623912   0.3962372   0.0000000), wk =   0.1066667
        k(   14) = (   0.0623912   0.4682803   0.0000000), wk =   0.1066667
        k(   15) = (   0.0623912   0.5403234   0.0000000), wk =   0.0533333
        k(   16) = (   0.1247824   0.2161294   0.0000000), wk =   0.0533333
        k(   17) = (   0.1247824   0.2881725   0.0000000), wk =   0.1066667
        k(   18) = (   0.1247824   0.3602156   0.0000000), wk =   0.1066667
        k(   19) = (   0.1247824   0.4322588   0.0000000), wk =   0.1066667
        k(   20) = (   0.1247824   0.5043019   0.0000000), wk =   0.1066667
        k(   21) = (   0.1871735   0.3241941   0.0000000), wk =   0.0533333
        k(   22) = (   0.1871735   0.3962372   0.0000000), wk =   0.1066667
        k(   23) = (   0.1871735   0.4682803   0.0000000), wk =   0.1066667
        k(   24) = (   0.1871735   0.5403234   0.0000000), wk =   0.0533333
        k(   25) = (   0.2495647   0.4322588   0.0000000), wk =   0.0533333
        k(   26) = (   0.2495647   0.5043019   0.0000000), wk =   0.1066667
        k(   27) = (   0.3119559   0.5403234   0.0000000), wk =   0.0177778

     Initial potential from superposition of free atoms

     starting charge    7.98607, renormalised to    8.00000

     negative rho (up, down):  1.096E-04 0.000E+00
     Starting wfcs are random

     Self-consistent Calculation

[...]

     negative rho (up, down):  2.655E-06 0.000E+00

[...]

     iteration #  4     ecut=    50.00 Ry     beta= 0.70
     Davidson diagonalization with overlap
     c_bands:  1 eigenvalues not converged
     ethr =  2.22E-06,  avg # of iterations =  5.1

[...]

     total energy              =     -22.78879533 Ry
     estimated scf accuracy    <          8.8E-10 Ry

     iteration #  7     ecut=    50.00 Ry     beta= 0.70
     Davidson diagonalization with overlap
     ethr =  1.10E-11,  avg # of iterations =  3.0

     End of self-consistent calculation

[...]

          k = 0.3120 0.5403 0.0000 (  4395 PWs)   bands (ev):

   -16.8770 -16.8770 -15.0320  -4.1196  -4.1196   6.5683   9.0439   9.0440

     the Fermi energy is    -4.1196 ev

!    total energy              =     -22.78879533 Ry
     estimated scf accuracy    <          1.4E-11 Ry
     smearing contrib. (-TS)   =      -0.00005015 Ry
     internal energy E=F+TS    =     -22.78874518 Ry

     The total energy is F=E-TS. E is the sum of the following terms:
     one-electron contribution =    -397.95506341 Ry
     hartree contribution      =     199.62499310 Ry
     xc contribution           =      -7.07089618 Ry
     ewald contribution        =     182.61222132 Ry

     convergence has been achieved in   7 iterations

     Forces acting on atoms (cartesian axes, Ry/au):

     atom    1 type  1   force =     0.00000000    0.00000000    0.00000000
     atom    2 type  1   force =     0.00000000    0.00000000    0.00000000

     Total force =     0.000000     Total SCF correction =     0.000000

     Computing stress (Cartesian axis) and pressure

          total   stress  (Ry/bohr**3)                   (kbar)     P=        2.68
   0.00008318   0.00000000   0.00000000           12.24        0.00        0.00
   0.00000000   0.00008318   0.00000000            0.00       12.24        0.00
   0.00000000   0.00000000  -0.00011168            0.00        0.00      -16.43

     Writing output data file ./work/LiC430.save/

     General routines

     Parallel routines

   This run was terminated on:  14: 9: 9  19Jan2024

   JOB DONE.