     Program PWSCF v.6.7MaX starts on 19Jan2024 at 14: 8: 1

     R & G space division:  proc/nbgrp/npool/nimage =      32
     Waiting for input...
     Reading input from standard input

     Current dimensions of program PWSCF are:
     Max number of different atomic species (ntypx) = 10
     Max number of k-points (npk) =  40000
     Max angular momentum in pseudopotentials (lmaxx) =  3
     Message from routine read_pp_mesh:
     mesh size missing, using the one in header

     Subspace diagonalization in iterative solution of the eigenvalue problem:
     a serial algorithm will be used

     bravais-lattice index     =            4
     lattice parameter (alat)  =       4.2800  a.u.
     unit-cell volume          =     642.5001 (a.u.)^3
     number of atoms/cell      =            2
     number of atomic types    =            1
     number of electrons       =         8.00
     number of Kohn-Sham states=            8
     kinetic-energy cutoff     =      50.0000  Ry
     charge density cutoff     =     200.0000  Ry
     scf convergence threshold =      1.0E-08
     mixing beta               =       0.7000
     number of iterations used =            8  plain     mixing
     energy convergence thresh.=      1.0E-04
     force convergence thresh. =      1.0E-08
     press convergence thresh. =      1.0E-03
     Exchange-correlation= PBE
                           (   1   4   3   4   0   0   0)
     nstep                     =           50

     celldm(1)=   4.280000  celldm(2)=   0.000000  celldm(3)=   9.462617
     celldm(4)=   0.000000  celldm(5)=   0.000000  celldm(6)=   0.000000

     crystal axes: (cart. coord. in units of alat)
               a(1) = (   1.000000   0.000000   0.000000 )
               a(2) = (  -0.500000   0.866025   0.000000 )
               a(3) = (   0.000000   0.000000   9.462617 )

     reciprocal axes: (cart. coord. in units 2 pi/alat)
               b(1) = (  1.000000  0.577350  0.000000 )
               b(2) = (  0.000000  1.154701  0.000000 )
               b(3) = (  0.000000  0.000000  0.105679 )

     PseudoPot. # 1 for C  read from file:
     /home/yhkim/qe-6.7/pseudo/ONCV1/1.2/C_ONCV_PBE-1.2.upf
     MD5 check sum: 1a5f83a7b1f58d24996abe00ed223ac6
     Pseudo is Norm-conserving, Zval =  4.0
     Generated using ONCVPSP code by D. R. Hamann
     Using radial grid of  602 points,  4 beta functions with:
                l(1) =   0
                l(2) =   0
                l(3) =   1
                l(4) =   1

     atomic species   valence    mass     pseudopotential
        C              4.00    12.01070     C ( 1.00)

     24 Sym. Ops., with inversion, found

   Cartesian axes

     site n.     atom                  positions (alat units)
         1           C   tau(   1) = (  -0.0000000   0.5773503   4.7313084  )
         2           C   tau(   2) = (   0.5000000   0.2886751   4.7313084  )

     number of k points=    27  Methfessel-Paxton smearing, width (Ry)=  0.0100
                       cart. coord. in units 2pi/alat
        k(    1) = (   0.0000000   0.0000000   0.0000000), wk =   0.0088889
        k(    2) = (   0.0000000   0.0769800   0.0000000), wk =   0.0533333
        k(    3) = (   0.0000000   0.1539601   0.0000000), wk =   0.0533333
        k(    4) = (   0.0000000   0.2309401   0.0000000), wk =   0.0533333
        k(    5) = (   0.0000000   0.3079201   0.0000000), wk =   0.0533333
        k(    6) = (   0.0000000   0.3849002   0.0000000), wk =   0.0533333
        k(    7) = (   0.0000000   0.4618802   0.0000000), wk =   0.0533333
        k(    8) = (   0.0000000   0.5388603   0.0000000), wk =   0.0533333
        k(    9) = (   0.0666667   0.1154701   0.0000000), wk =   0.0533333
        k(   10) = (   0.0666667   0.1924501   0.0000000), wk =   0.1066667
        k(   11) = (   0.0666667   0.2694301   0.0000000), wk =   0.1066667
        k(   12) = (   0.0666667   0.3464102   0.0000000), wk =   0.1066667
        k(   13) = (   0.0666667   0.4233902   0.0000000), wk =   0.1066667
        k(   14) = (   0.0666667   0.5003702   0.0000000), wk =   0.1066667
        k(   15) = (   0.0666667   0.5773503   0.0000000), wk =   0.0533333
        k(   16) = (   0.1333333   0.2309401   0.0000000), wk =   0.0533333
        k(   17) = (   0.1333333   0.3079201   0.0000000), wk =   0.1066667
        k(   18) = (   0.1333333   0.3849002   0.0000000), wk =   0.1066667
        k(   19) = (   0.1333333   0.4618802   0.0000000), wk =   0.1066667
        k(   20) = (   0.1333333   0.5388603   0.0000000), wk =   0.1066667
        k(   21) = (   0.2000000   0.3464102   0.0000000), wk =   0.0533333
        k(   22) = (   0.2000000   0.4233902   0.0000000), wk =   0.1066667
        k(   23) = (   0.2000000   0.5003702   0.0000000), wk =   0.1066667
        k(   24) = (   0.2000000   0.5773503   0.0000000), wk =   0.0533333
        k(   25) = (   0.2666667   0.4618802   0.0000000), wk =   0.0533333
        k(   26) = (   0.2666667   0.5388603   0.0000000), wk =   0.1066667
        k(   27) = (   0.3333333   0.5773503   0.0000000), wk =   0.0177778

     Initial potential from superposition of free atoms

     starting charge    7.98607, renormalised to    8.00000

     negative rho (up, down):  1.055E-04 0.000E+00
     Starting wfcs are random

     Self-consistent Calculation

     iteration #  1     ecut=    50.00 Ry     beta= 0.70
     Davidson diagonalization with overlap
     ethr =  1.00E-02,  avg # of iterations = 11.6

     negative rho (up, down):  1.527E-07 0.000E+00

     total energy              =     -22.65475662 Ry
     estimated scf accuracy    <       0.33115582 Ry

[...]

     iteration #  3     ecut=    50.00 Ry     beta= 0.70
     Davidson diagonalization with overlap
     c_bands:  1 eigenvalues not converged
     ethr =  3.16E-05,  avg # of iterations = 11.1

[...]

     End of self-consistent calculation

          k = 0.0000 0.0000 0.0000 (  3823 PWs)   bands (ev):

   -25.1213 -12.9428  -6.3430  -1.0258  -0.2097   0.5639   0.9194   2.2437

[...]

     the Fermi energy is    -3.3960 ev

!    total energy              =     -22.70594767 Ry
     estimated scf accuracy    <          5.0E-09 Ry
     smearing contrib. (-TS)   =      -0.00003668 Ry
     internal energy E=F+TS    =     -22.70591099 Ry

     The total energy is F=E-TS. E is the sum of the following terms:
     one-electron contribution =    -459.47654203 Ry
     hartree contribution      =     230.55134060 Ry
     xc contribution           =      -7.39517230 Ry
     ewald contribution        =     213.61446274 Ry

     convergence has been achieved in   6 iterations

     Forces acting on atoms (cartesian axes, Ry/au):

     atom    1 type  1   force =     0.00000000    0.00000000    0.00000000
     atom    2 type  1   force =     0.00000000    0.00000000    0.00000000

     Total force =     0.000000     Total SCF correction =     0.000000

     Computing stress (Cartesian axis) and pressure

          total   stress  (Ry/bohr**3)                   (kbar)     P=      133.45
   0.00142767   0.00000000   0.00000000          210.02        0.00        0.00
   0.00000000   0.00142767   0.00000000            0.00      210.02        0.00
   0.00000000   0.00000000  -0.00013390            0.00        0.00      -19.70

     BFGS Geometry Optimization
     Energy error            =      0.0E+00
     Gradient error          =      0.0E+00
     Cell gradient error     =      1.4E-03

     number of scf cycles    =   1
     number of bfgs steps    =   0

     enthalpy new            =     -22.7059476712 Ry

     new trust radius        =       0.1809400641 bohr
     new conv_thr            =       0.0000000100 Ry

     new unit-cell volume =    689.18251 a.u.^3 (   102.12631 Ang^3 )
     density =      0.39058 g/cm^3

CELL_PARAMETERS (alat=  4.28000000)
   1.035691775   0.000000000   0.000000000
  -0.517845888   0.896935388   0.000000000
   0.000000000   0.000000000   9.462616822

ATOMIC_POSITIONS (crystal)
C             0.3333333333        0.6666666667        0.5000000000
C             0.6666666667        0.3333333333        0.5000000000

     Writing output data file ./work/LiC428.save/
     NEW-OLD atomic charge density approx. for the potential

     negative rho (up, down):  9.438E-05 0.000E+00
     extrapolated charge    8.54094, renormalised to    8.00000

[...]

          k =-0.0000 0.0743 0.0000 (  3843 PWs)   bands (ev):

[...]

     Energy error            =      4.9E-02
     Gradient error          =      0.0E+00
     Cell gradient error     =      6.3E-04

[...]

     enthalpy old            =     -22.7059476712 Ry
     enthalpy new            =     -22.7548391838 Ry

     CASE: enthalpy_new < enthalpy_old

[...]

     Writing output data file ./work/LiC428.save/
     NEW-OLD atomic charge density approx. for the potential

     negative rho (up, down):  4.876E-06 0.000E+00
     extrapolated charge    8.10039, renormalised to    8.00000

[...]

     Writing output data file ./work/LiC428.save/
     NEW-OLD atomic charge density approx. for the potential
     extrapolated charge    8.01267, renormalised to    8.00000

[...]

     number of scf cycles    =   5
     number of bfgs steps    =   4

     enthalpy old            =     -22.7697779255 Ry
     enthalpy new            =     -22.7697854612 Ry

     CASE: enthalpy_new < enthalpy_old

     new trust radius        =       0.0001081099 bohr
     new conv_thr            =            1.0E-10 Ry

     new unit-cell volume =    739.78887 a.u.^3 (   109.62540 Ang^3 )
     density =      0.36386 g/cm^3

[...]

ATOMIC_POSITIONS (crystal)
C             0.3333333333        0.6666666667        0.5000000000
C             0.6666666667        0.3333333333        0.5000000000

     Writing output data file ./work/LiC428.save/
     NEW-OLD atomic charge density approx. for the potential
     extrapolated charge    8.00032, renormalised to    8.00000

[...]

     Threshold (ethr) on eigenvalues was too large:
     Diagonalizing with lowered threshold

     Davidson diagonalization with overlap
     ethr =  3.54E-10,  avg # of iterations =  1.8

[...]

     Energy error            =      4.4E-09
     Gradient error          =      0.0E+00
     Cell gradient error     =      3.6E-09

     bfgs converged in   6 scf cycles and   5 bfgs steps
     (criteria: energy <  1.0E-04 Ry, force <  1.0E-08Ry/Bohr, cell <  1.0E-03kbar)

     End of BFGS Geometry Optimization

     Final enthalpy =     -22.7697854656 Ry

     File ./work/LiC428.bfgs deleted, as requested
Begin final coordinates
     new unit-cell volume =    739.78887 a.u.^3 (   109.62540 Ang^3 )
     density =      0.36386 g/cm^3

CELL_PARAMETERS (alat=  4.28000000)
   1.073043429   0.000000000   0.000000000
  -0.536521714   0.929282869   0.000000000
   0.000000000   0.000000000   9.462616822

ATOMIC_POSITIONS (crystal)
C             0.3333333333        0.6666666667        0.5000000000
C             0.6666666667        0.3333333333        0.5000000000
End final coordinates

     Writing output data file ./work/LiC428.save/

     Final scf calculation at the relaxed structure.
     The G-vectors are recalculated for the final unit cell
     Results may differ from those at the preceding step.

     bravais-lattice index     =            4
     lattice parameter (alat)  =       4.2800  a.u.
     unit-cell volume          =     739.7889 (a.u.)^3
     number of atoms/cell      =            2
     number of atomic types    =            1
     number of electrons       =         8.00
     number of Kohn-Sham states=            8
     kinetic-energy cutoff     =      50.0000  Ry
     charge density cutoff     =     200.0000  Ry
     scf convergence threshold =      1.0E-10
     mixing beta               =       0.7000
     number of iterations used =            8  plain     mixing
     press convergence thresh. =      1.0E-03
     Exchange-correlation= PBE
                           (   1   4   3   4   0   0   0)

     celldm(1)=   4.280000  celldm(2)=   0.000000  celldm(3)=   9.462617
     celldm(4)=   0.000000  celldm(5)=   0.000000  celldm(6)=   0.000000

     crystal axes: (cart. coord. in units of alat)
               a(1) = (   1.073043   0.000000   0.000000 )
               a(2) = (  -0.536522   0.929283   0.000000 )
               a(3) = (   0.000000   0.000000   9.462617 )

     reciprocal axes: (cart. coord. in units 2 pi/alat)
               b(1) = (  0.931929  0.538049  0.000000 )
               b(2) = ( -0.000000  1.076099  0.000000 )
               b(3) = (  0.000000  0.000000  0.105679 )

     PseudoPot. # 1 for C  read from file:
     /home/yhkim/qe-6.7/pseudo/ONCV1/1.2/C_ONCV_PBE-1.2.upf
     MD5 check sum: 1a5f83a7b1f58d24996abe00ed223ac6
     Pseudo is Norm-conserving, Zval =  4.0
     Generated using ONCVPSP code by D. R. Hamann
     Using radial grid of  602 points,  4 beta functions with:
                l(1) =   0
                l(2) =   0
                l(3) =   1
                l(4) =   1

     atomic species   valence    mass     pseudopotential
        C              4.00    12.01070     C ( 1.00)

     24 Sym. Ops., with inversion, found

   Cartesian axes

     site n.     atom                  positions (alat units)
         1           C   tau(   1) = (  -0.0000000   0.6195219   4.7313084  )
         2           C   tau(   2) = (   0.5365217   0.3097610   4.7313084  )

     number of k points=    27  Methfessel-Paxton smearing, width (Ry)=  0.0100
                       cart. coord. in units 2pi/alat
        k(    1) = (   0.0000000   0.0000000   0.0000000), wk =   0.0088889
        k(    2) = (  -0.0000000   0.0717399   0.0000000), wk =   0.0533333
        k(    3) = (  -0.0000000   0.1434798   0.0000000), wk =   0.0533333
        k(    4) = (  -0.0000000   0.2152197   0.0000000), wk =   0.0533333
        k(    5) = (  -0.0000000   0.2869596   0.0000000), wk =   0.0533333
        k(    6) = (  -0.0000000   0.3586995   0.0000000), wk =   0.0533333
        k(    7) = (  -0.0000000   0.4304394   0.0000000), wk =   0.0533333
        k(    8) = (  -0.0000000   0.5021793   0.0000000), wk =   0.0533333
        k(    9) = (   0.0621286   0.1076099   0.0000000), wk =   0.0533333
        k(   10) = (   0.0621286   0.1793498   0.0000000), wk =   0.1066667
        k(   11) = (   0.0621286   0.2510897   0.0000000), wk =   0.1066667
        k(   12) = (   0.0621286   0.3228296   0.0000000), wk =   0.1066667
        k(   13) = (   0.0621286   0.3945695   0.0000000), wk =   0.1066667
        k(   14) = (   0.0621286   0.4663094   0.0000000), wk =   0.1066667
        k(   15) = (   0.0621286   0.5380493   0.0000000), wk =   0.0533333
        k(   16) = (   0.1242572   0.2152197   0.0000000), wk =   0.0533333
        k(   17) = (   0.1242572   0.2869596   0.0000000), wk =   0.1066667
        k(   18) = (   0.1242572   0.3586995   0.0000000), wk =   0.1066667
        k(   19) = (   0.1242572   0.4304394   0.0000000), wk =   0.1066667
        k(   20) = (   0.1242572   0.5021793   0.0000000), wk =   0.1066667
        k(   21) = (   0.1863857   0.3228296   0.0000000), wk =   0.0533333
        k(   22) = (   0.1863857   0.3945695   0.0000000), wk =   0.1066667
        k(   23) = (   0.1863857   0.4663094   0.0000000), wk =   0.1066667
        k(   24) = (   0.1863857   0.5380493   0.0000000), wk =   0.0533333
        k(   25) = (   0.2485143   0.4304394   0.0000000), wk =   0.0533333
        k(   26) = (   0.2485143   0.5021793   0.0000000), wk =   0.1066667
        k(   27) = (   0.3106429   0.5380493   0.0000000), wk =   0.0177778

     Initial potential from superposition of free atoms

     starting charge    7.98607, renormalised to    8.00000

     negative rho (up, down):  1.110E-04 0.000E+00
     Starting wfcs are random

     Self-consistent Calculation

     iteration #  1     ecut=    50.00 Ry     beta= 0.70
     Davidson diagonalization with overlap
     c_bands:  5 eigenvalues not converged
     c_bands:  2 eigenvalues not converged
     c_bands:  3 eigenvalues not converged
     c_bands:  5 eigenvalues not converged
     c_bands:  4 eigenvalues not converged
     c_bands:  4 eigenvalues not converged
     c_bands:  2 eigenvalues not converged
     c_bands:  2 eigenvalues not converged
     c_bands:  3 eigenvalues not converged
     c_bands:  4 eigenvalues not converged
     c_bands:  4 eigenvalues not converged
     c_bands:  4 eigenvalues not converged
     c_bands:  4 eigenvalues not converged
     c_bands:  2 eigenvalues not converged
     c_bands:  2 eigenvalues not converged
     c_bands:  4 eigenvalues not converged
     c_bands:  4 eigenvalues not converged
     c_bands:  4 eigenvalues not converged
     c_bands:  3 eigenvalues not converged
     c_bands:  2 eigenvalues not converged
     c_bands:  4 eigenvalues not converged
     c_bands:  3 eigenvalues not converged
     c_bands:  3 eigenvalues not converged
     c_bands:  3 eigenvalues not converged
     c_bands:  3 eigenvalues not converged
     c_bands:  3 eigenvalues not converged
     c_bands:  3 eigenvalues not converged
     ethr =  1.00E-06,  avg # of iterations = 22.2

[...]

     negative rho (up, down):  2.715E-06 0.000E+00

[...]

     total energy              =     -22.78864811 Ry
     estimated scf accuracy    <          1.1E-09 Ry

     iteration #  7     ecut=    50.00 Ry     beta= 0.70
     Davidson diagonalization with overlap
     ethr =  1.37E-11,  avg # of iterations =  2.7

     End of self-consistent calculation

[...]

          k =-0.0000 0.5022 0.0000 (  4437 PWs)   bands (ev):

[...]

          k = 0.3106 0.5380 0.0000 (  4395 PWs)   bands (ev):

   -16.8770 -16.8770 -15.0382  -4.1158  -4.1158   6.5744   9.0563   9.0563

     the Fermi energy is    -4.1158 ev

!    total energy              =     -22.78864811 Ry
     estimated scf accuracy    <          1.3E-11 Ry
     smearing contrib. (-TS)   =      -0.00005015 Ry
     internal energy E=F+TS    =     -22.78859796 Ry

     The total energy is F=E-TS. E is the sum of the following terms:
     one-electron contribution =    -398.31308518 Ry
     hartree contribution      =     199.80495675 Ry
     xc contribution           =      -7.07284273 Ry
     ewald contribution        =     182.79237320 Ry

     convergence has been achieved in   7 iterations

     Forces acting on atoms (cartesian axes, Ry/au):

     atom    1 type  1   force =    -0.00000000   -0.00000000    0.00000000
     atom    2 type  1   force =     0.00000000    0.00000000    0.00000000

     Total force =     0.000000     Total SCF correction =     0.000000

     Computing stress (Cartesian axis) and pressure

          total   stress  (Ry/bohr**3)                   (kbar)     P=        3.29
   0.00008939  -0.00000000   0.00000000           13.15       -0.00        0.00
  -0.00000000   0.00008939  -0.00000000           -0.00       13.15       -0.00
  -0.00000000   0.00000000  -0.00011172           -0.00        0.00      -16.43

     Writing output data file ./work/LiC428.save/

     General routines

     Parallel routines

   This run was terminated on:  14: 8:23  19Jan2024

   JOB DONE.