     Program PWSCF v.6.7MaX starts on 19Jan2024 at 15:47:32

     R & G space division:  proc/nbgrp/npool/nimage =      32
     Waiting for input...
     Reading input from standard input

     Current dimensions of program PWSCF are:
     Max number of different atomic species (ntypx) = 10
     Max number of k-points (npk) =  40000
     Max angular momentum in pseudopotentials (lmaxx) =  3
     Message from routine read_pp_mesh:
     mesh size missing, using the one in header

     Subspace diagonalization in iterative solution of the eigenvalue problem:
     a serial algorithm will be used

     bravais-lattice index     =            4
     lattice parameter (alat)  =       5.3000  a.u.
     unit-cell volume          =     985.2295 (a.u.)^3
     number of atoms/cell      =            2
     number of atomic types    =            1
     number of electrons       =         8.00
     number of Kohn-Sham states=            8
     kinetic-energy cutoff     =      50.0000  Ry
     charge density cutoff     =     200.0000  Ry
     scf convergence threshold =      1.0E-08
     mixing beta               =       0.7000
     number of iterations used =            8  plain     mixing
     energy convergence thresh.=      1.0E-04
     force convergence thresh. =      1.0E-08
     press convergence thresh. =      1.0E-03
     Exchange-correlation= PBE
                           (   1   4   3   4   0   0   0)
     nstep                     =           50

     celldm(1)=   5.300000  celldm(2)=   0.000000  celldm(3)=   7.641509
     celldm(4)=   0.000000  celldm(5)=   0.000000  celldm(6)=   0.000000

     crystal axes: (cart. coord. in units of alat)
               a(1) = (   1.000000   0.000000   0.000000 )
               a(2) = (  -0.500000   0.866025   0.000000 )
               a(3) = (   0.000000   0.000000   7.641509 )

     reciprocal axes: (cart. coord. in units 2 pi/alat)
               b(1) = (  1.000000  0.577350  0.000000 )
               b(2) = (  0.000000  1.154701  0.000000 )
               b(3) = (  0.000000  0.000000  0.130864 )

     PseudoPot. # 1 for C  read from file:
     /home/yhkim/qe-6.7/pseudo/ONCV1/1.2/C_ONCV_PBE-1.2.upf
     MD5 check sum: 1a5f83a7b1f58d24996abe00ed223ac6
     Pseudo is Norm-conserving, Zval =  4.0
     Generated using ONCVPSP code by D. R. Hamann
     Using radial grid of  602 points,  4 beta functions with:
                l(1) =   0
                l(2) =   0
                l(3) =   1
                l(4) =   1

     atomic species   valence    mass     pseudopotential
        C              4.00    12.01070     C ( 1.00)

     24 Sym. Ops., with inversion, found

   Cartesian axes

     site n.     atom                  positions (alat units)
         1           C   tau(   1) = (  -0.0000000   0.5773503   3.8207547  )
         2           C   tau(   2) = (   0.5000000   0.2886751   3.8207547  )

     number of k points=    27  Methfessel-Paxton smearing, width (Ry)=  0.0100
                       cart. coord. in units 2pi/alat
        k(    1) = (   0.0000000   0.0000000   0.0000000), wk =   0.0088889
        k(    2) = (   0.0000000   0.0769800   0.0000000), wk =   0.0533333
        k(    3) = (   0.0000000   0.1539601   0.0000000), wk =   0.0533333
        k(    4) = (   0.0000000   0.2309401   0.0000000), wk =   0.0533333
        k(    5) = (   0.0000000   0.3079201   0.0000000), wk =   0.0533333
        k(    6) = (   0.0000000   0.3849002   0.0000000), wk =   0.0533333
        k(    7) = (   0.0000000   0.4618802   0.0000000), wk =   0.0533333
        k(    8) = (   0.0000000   0.5388603   0.0000000), wk =   0.0533333
        k(    9) = (   0.0666667   0.1154701   0.0000000), wk =   0.0533333
        k(   10) = (   0.0666667   0.1924501   0.0000000), wk =   0.1066667
        k(   11) = (   0.0666667   0.2694301   0.0000000), wk =   0.1066667
        k(   12) = (   0.0666667   0.3464102   0.0000000), wk =   0.1066667
        k(   13) = (   0.0666667   0.4233902   0.0000000), wk =   0.1066667
        k(   14) = (   0.0666667   0.5003702   0.0000000), wk =   0.1066667
        k(   15) = (   0.0666667   0.5773503   0.0000000), wk =   0.0533333
        k(   16) = (   0.1333333   0.2309401   0.0000000), wk =   0.0533333
        k(   17) = (   0.1333333   0.3079201   0.0000000), wk =   0.1066667
        k(   18) = (   0.1333333   0.3849002   0.0000000), wk =   0.1066667
        k(   19) = (   0.1333333   0.4618802   0.0000000), wk =   0.1066667
        k(   20) = (   0.1333333   0.5388603   0.0000000), wk =   0.1066667
        k(   21) = (   0.2000000   0.3464102   0.0000000), wk =   0.0533333
        k(   22) = (   0.2000000   0.4233902   0.0000000), wk =   0.1066667
        k(   23) = (   0.2000000   0.5003702   0.0000000), wk =   0.1066667
        k(   24) = (   0.2000000   0.5773503   0.0000000), wk =   0.0533333
        k(   25) = (   0.2666667   0.4618802   0.0000000), wk =   0.0533333
        k(   26) = (   0.2666667   0.5388603   0.0000000), wk =   0.1066667
        k(   27) = (   0.3333333   0.5773503   0.0000000), wk =   0.0177778

     Initial potential from superposition of free atoms

     starting charge    7.98607, renormalised to    8.00000

     negative rho (up, down):  1.300E-04 0.000E+00
     Starting wfcs are random

     Self-consistent Calculation

     iteration #  1     ecut=    50.00 Ry     beta= 0.70
     Davidson diagonalization with overlap
     ethr =  1.00E-02,  avg # of iterations = 12.2

     Threshold (ethr) on eigenvalues was too large:
     Diagonalizing with lowered threshold

     Davidson diagonalization with overlap
     ethr =  5.64E-04,  avg # of iterations =  4.6

     negative rho (up, down):  2.031E-05 0.000E+00

     total energy              =     -22.64967554 Ry
     estimated scf accuracy    <       0.05266158 Ry

[...]

     iteration #  3     ecut=    50.00 Ry     beta= 0.70
     Davidson diagonalization with overlap
     c_bands:  1 eigenvalues not converged
     ethr =  2.07E-05,  avg # of iterations =  7.6

[...]

     End of self-consistent calculation

          k = 0.0000 0.0000 0.0000 (  5809 PWs)   bands (ev):

   -21.8360 -10.5165  -8.1728  -8.1728  -0.8946  -0.2180  -0.1940   0.6180

[...]

     the Fermi energy is    -5.1670 ev

!    total energy              =     -22.65553696 Ry
     estimated scf accuracy    <          3.2E-10 Ry
     smearing contrib. (-TS)   =      -0.00005015 Ry
     internal energy E=F+TS    =     -22.65548681 Ry

     The total energy is F=E-TS. E is the sum of the following terms:
     one-electron contribution =    -298.37317881 Ry
     hartree contribution      =     149.61021102 Ry
     xc contribution           =      -6.50950042 Ry
     ewald contribution        =     132.61698139 Ry

     convergence has been achieved in   6 iterations

     Forces acting on atoms (cartesian axes, Ry/au):

     atom    1 type  1   force =     0.00000000    0.00000000    0.00000000
     atom    2 type  1   force =     0.00000000    0.00000000    0.00000000

     Total force =     0.000000     Total SCF correction =     0.000000

     Computing stress (Cartesian axis) and pressure

          total   stress  (Ry/bohr**3)                   (kbar)     P=     -103.03
  -0.00101352   0.00000000   0.00000000         -149.09        0.00        0.00
   0.00000000  -0.00101352  -0.00000000            0.00     -149.09       -0.00
   0.00000000  -0.00000000  -0.00007407            0.00       -0.00      -10.90

     BFGS Geometry Optimization
     Energy error            =      0.0E+00
     Gradient error          =      0.0E+00
     Cell gradient error     =      1.0E-03

     number of scf cycles    =   1
     number of bfgs steps    =   0

     enthalpy new            =     -22.6555369585 Ry

     new trust radius        =       0.1590643508 bohr
     new conv_thr            =       0.0000000100 Ry

     new unit-cell volume =    935.93431 a.u.^3 (   138.69116 Ang^3 )
     density =      0.28761 g/cm^3

CELL_PARAMETERS (alat=  5.30000000)
   0.974661893   0.000000000   0.000000000
  -0.487330946   0.844081959   0.000000000
   0.000000000   0.000000000   7.641509434

ATOMIC_POSITIONS (crystal)
C             0.3333333333        0.6666666667        0.5000000000
C             0.6666666667        0.3333333333        0.5000000000

     Writing output data file ./work/LiC530.save/
     NEW-OLD atomic charge density approx. for the potential

     negative rho (up, down):  7.976E-06 0.000E+00
     extrapolated charge    7.57938, renormalised to    8.00000

[...]

          k =-0.0000 0.0790 0.0000 (  5815 PWs)   bands (ev):

[...]

     Energy error            =      4.8E-02
     Gradient error          =      1.8E-26
     Cell gradient error     =      9.2E-04

[...]

     enthalpy old            =     -22.6555369585 Ry
     enthalpy new            =     -22.7032625271 Ry

     CASE: enthalpy_new < enthalpy_old

     WARNING: bfgs curvature condition failed, Theta= 0.909
     new trust radius        =       0.1749707859 bohr
     new conv_thr            =            1.0E-10 Ry

[...]

     Writing output data file ./work/LiC530.save/
     NEW-OLD atomic charge density approx. for the potential

     negative rho (up, down):  3.272E-07 0.000E+00
     extrapolated charge    7.97836, renormalised to    8.00000

[...]

     number of scf cycles    =   7
     number of bfgs steps    =   6

     enthalpy old            =     -22.8021751629 Ry
     enthalpy new            =     -22.8021955734 Ry

     CASE: enthalpy_new < enthalpy_old

     new trust radius        =       0.0003214536 bohr
     new conv_thr            =            1.0E-10 Ry

     new unit-cell volume =    757.04066 a.u.^3 (   112.18185 Ang^3 )
     density =      0.35557 g/cm^3

[...]

ATOMIC_POSITIONS (crystal)
C             0.3333333333        0.6666666667        0.5000000000
C             0.6666666667        0.3333333333        0.5000000000

     Writing output data file ./work/LiC530.save/
     NEW-OLD atomic charge density approx. for the potential
     extrapolated charge    7.99907, renormalised to    8.00000

[...]

     Threshold (ethr) on eigenvalues was too large:
     Diagonalizing with lowered threshold

     Davidson diagonalization with overlap
     ethr =  3.02E-09,  avg # of iterations =  1.1

[...]

     Energy error            =      3.5E-08
     Gradient error          =      0.0E+00
     Cell gradient error     =      5.3E-09

     bfgs converged in   8 scf cycles and   7 bfgs steps
     (criteria: energy <  1.0E-04 Ry, force <  1.0E-08Ry/Bohr, cell <  1.0E-03kbar)

     End of BFGS Geometry Optimization

     Final enthalpy =     -22.8021956086 Ry

     File ./work/LiC530.bfgs deleted, as requested
Begin final coordinates
     new unit-cell volume =    757.04066 a.u.^3 (   112.18185 Ang^3 )
     density =      0.35557 g/cm^3

CELL_PARAMETERS (alat=  5.30000000)
   0.876578685   0.000000000   0.000000000
  -0.438289343   0.759139410   0.000000000
   0.000000000   0.000000000   7.641509434

ATOMIC_POSITIONS (crystal)
C             0.3333333333        0.6666666667        0.5000000000
C             0.6666666667        0.3333333333        0.5000000000
End final coordinates

     Writing output data file ./work/LiC530.save/

     Final scf calculation at the relaxed structure.
     The G-vectors are recalculated for the final unit cell
     Results may differ from those at the preceding step.

     bravais-lattice index     =            4
     lattice parameter (alat)  =       5.3000  a.u.
     unit-cell volume          =     757.0407 (a.u.)^3
     number of atoms/cell      =            2
     number of atomic types    =            1
     number of electrons       =         8.00
     number of Kohn-Sham states=            8
     kinetic-energy cutoff     =      50.0000  Ry
     charge density cutoff     =     200.0000  Ry
     scf convergence threshold =      1.0E-10
     mixing beta               =       0.7000
     number of iterations used =            8  plain     mixing
     press convergence thresh. =      1.0E-03
     Exchange-correlation= PBE
                           (   1   4   3   4   0   0   0)

     celldm(1)=   5.300000  celldm(2)=   0.000000  celldm(3)=   7.641509
     celldm(4)=   0.000000  celldm(5)=   0.000000  celldm(6)=   0.000000

     crystal axes: (cart. coord. in units of alat)
               a(1) = (   0.876579   0.000000   0.000000 )
               a(2) = (  -0.438289   0.759139   0.000000 )
               a(3) = (   0.000000   0.000000   7.641509 )

     reciprocal axes: (cart. coord. in units 2 pi/alat)
               b(1) = (  1.140799  0.658641  0.000000 )
               b(2) = ( -0.000000  1.317281  0.000000 )
               b(3) = (  0.000000  0.000000  0.130864 )

     PseudoPot. # 1 for C  read from file:
     /home/yhkim/qe-6.7/pseudo/ONCV1/1.2/C_ONCV_PBE-1.2.upf
     MD5 check sum: 1a5f83a7b1f58d24996abe00ed223ac6
     Pseudo is Norm-conserving, Zval =  4.0
     Generated using ONCVPSP code by D. R. Hamann
     Using radial grid of  602 points,  4 beta functions with:
                l(1) =   0
                l(2) =   0
                l(3) =   1
                l(4) =   1

     atomic species   valence    mass     pseudopotential
        C              4.00    12.01070     C ( 1.00)

     24 Sym. Ops., with inversion, found

   Cartesian axes

     site n.     atom                  positions (alat units)
         1           C   tau(   1) = (  -0.0000000   0.5060929   3.8207547  )
         2           C   tau(   2) = (   0.4382893   0.2530465   3.8207547  )

     number of k points=    27  Methfessel-Paxton smearing, width (Ry)=  0.0100
                       cart. coord. in units 2pi/alat
        k(    1) = (   0.0000000   0.0000000   0.0000000), wk =   0.0088889
        k(    2) = (  -0.0000000   0.0878187   0.0000000), wk =   0.0533333
        k(    3) = (  -0.0000000   0.1756375   0.0000000), wk =   0.0533333
        k(    4) = (  -0.0000000   0.2634562   0.0000000), wk =   0.0533333
        k(    5) = (  -0.0000000   0.3512750   0.0000000), wk =   0.0533333
        k(    6) = (  -0.0000000   0.4390937   0.0000000), wk =   0.0533333
        k(    7) = (  -0.0000000   0.5269124   0.0000000), wk =   0.0533333
        k(    8) = (  -0.0000000   0.6147312   0.0000000), wk =   0.0533333
        k(    9) = (   0.0760533   0.1317281   0.0000000), wk =   0.0533333
        k(   10) = (   0.0760533   0.2195469   0.0000000), wk =   0.1066667
        k(   11) = (   0.0760533   0.3073656   0.0000000), wk =   0.1066667
        k(   12) = (   0.0760533   0.3951843   0.0000000), wk =   0.1066667
        k(   13) = (   0.0760533   0.4830031   0.0000000), wk =   0.1066667
        k(   14) = (   0.0760533   0.5708218   0.0000000), wk =   0.1066667
        k(   15) = (   0.0760533   0.6586406   0.0000000), wk =   0.0533333
        k(   16) = (   0.1521065   0.2634562   0.0000000), wk =   0.0533333
        k(   17) = (   0.1521065   0.3512750   0.0000000), wk =   0.1066667
        k(   18) = (   0.1521065   0.4390937   0.0000000), wk =   0.1066667
        k(   19) = (   0.1521065   0.5269124   0.0000000), wk =   0.1066667
        k(   20) = (   0.1521065   0.6147312   0.0000000), wk =   0.1066667
        k(   21) = (   0.2281598   0.3951843   0.0000000), wk =   0.0533333
        k(   22) = (   0.2281598   0.4830031   0.0000000), wk =   0.1066667
        k(   23) = (   0.2281598   0.5708218   0.0000000), wk =   0.1066667
        k(   24) = (   0.2281598   0.6586406   0.0000000), wk =   0.0533333
        k(   25) = (   0.3042130   0.5269124   0.0000000), wk =   0.0533333
        k(   26) = (   0.3042130   0.6147312   0.0000000), wk =   0.1066667
        k(   27) = (   0.3802663   0.6586406   0.0000000), wk =   0.0177778

     Initial potential from superposition of free atoms

     starting charge    7.98607, renormalised to    8.00000

     negative rho (up, down):  1.136E-04 0.000E+00
     Starting wfcs are random

     Self-consistent Calculation

     iteration #  1     ecut=    50.00 Ry     beta= 0.70
     Davidson diagonalization with overlap
     c_bands:  1 eigenvalues not converged
     c_bands:  2 eigenvalues not converged
     c_bands:  5 eigenvalues not converged
     c_bands:  4 eigenvalues not converged
     c_bands:  4 eigenvalues not converged
     c_bands:  4 eigenvalues not converged
     c_bands:  3 eigenvalues not converged
     c_bands:  2 eigenvalues not converged
     c_bands:  5 eigenvalues not converged
     c_bands:  5 eigenvalues not converged
     c_bands:  4 eigenvalues not converged
     c_bands:  4 eigenvalues not converged
     c_bands:  3 eigenvalues not converged
     c_bands:  2 eigenvalues not converged
     c_bands:  2 eigenvalues not converged
     c_bands:  4 eigenvalues not converged
     c_bands:  4 eigenvalues not converged
     c_bands:  4 eigenvalues not converged
     c_bands:  3 eigenvalues not converged
     c_bands:  2 eigenvalues not converged
     c_bands:  4 eigenvalues not converged
     c_bands:  4 eigenvalues not converged
     c_bands:  3 eigenvalues not converged
     c_bands:  3 eigenvalues not converged
     c_bands:  3 eigenvalues not converged
     c_bands:  3 eigenvalues not converged
     c_bands:  3 eigenvalues not converged
     ethr =  1.00E-06,  avg # of iterations = 21.5

[...]

     negative rho (up, down):  2.865E-06 0.000E+00

[...]

     total energy              =     -22.79093519 Ry
     estimated scf accuracy    <          1.1E-09 Ry

     iteration #  7     ecut=    50.00 Ry     beta= 0.70
     Davidson diagonalization with overlap
     ethr =  1.38E-11,  avg # of iterations =  2.9

     End of self-consistent calculation

[...]

          k =-0.0000 0.6147 0.0000 (  4547 PWs)   bands (ev):

[...]

          k = 0.3803 0.6586 0.0000 (  4509 PWs)   bands (ev):

   -16.8767 -16.8767 -14.8803  -4.2168  -4.2168   6.4200   8.7265   8.7265

     the Fermi energy is    -4.2168 ev

!    total energy              =     -22.79093520 Ry
     estimated scf accuracy    <          1.1E-11 Ry
     smearing contrib. (-TS)   =      -0.00005015 Ry
     internal energy E=F+TS    =     -22.79088504 Ry

     The total energy is F=E-TS. E is the sum of the following terms:
     one-electron contribution =    -389.13025637 Ry
     hartree contribution      =     195.18964101 Ry
     xc contribution           =      -7.02276981 Ry
     ewald contribution        =     178.17250012 Ry

     convergence has been achieved in   7 iterations

     Forces acting on atoms (cartesian axes, Ry/au):

     atom    1 type  1   force =     0.00000000    0.00000000    0.00000000
     atom    2 type  1   force =     0.00000000    0.00000000    0.00000000

     Total force =     0.000000     Total SCF correction =     0.000000

     Computing stress (Cartesian axis) and pressure

          total   stress  (Ry/bohr**3)                   (kbar)     P=      -11.86
  -0.00006671   0.00000000   0.00000000           -9.81        0.00        0.00
   0.00000000  -0.00006671  -0.00000000            0.00       -9.81       -0.00
   0.00000000  -0.00000000  -0.00010839            0.00       -0.00      -15.94

     Writing output data file ./work/LiC530.save/

     General routines

     Parallel routines

   This run was terminated on:  15:47:53  19Jan2024

   JOB DONE.