     Program PWSCF v.6.7MaX starts on 19Jan2024 at 14:10: 0

     R & G space division:  proc/nbgrp/npool/nimage =      32
     Waiting for input...
     Reading input from standard input

     Current dimensions of program PWSCF are:
     Max number of different atomic species (ntypx) = 10
     Max number of k-points (npk) =  40000
     Max angular momentum in pseudopotentials (lmaxx) =  3
     Message from routine read_pp_mesh:
     mesh size missing, using the one in header

     Subspace diagonalization in iterative solution of the eigenvalue problem:
     a serial algorithm will be used

     bravais-lattice index     =            4
     lattice parameter (alat)  =       4.3300  a.u.
     unit-cell volume          =     657.5995 (a.u.)^3
     number of atoms/cell      =            2
     number of atomic types    =            1
     number of electrons       =         8.00
     number of Kohn-Sham states=            8
     kinetic-energy cutoff     =      50.0000  Ry
     charge density cutoff     =     200.0000  Ry
     scf convergence threshold =      1.0E-08
     mixing beta               =       0.7000
     number of iterations used =            8  plain     mixing
     energy convergence thresh.=      1.0E-04
     force convergence thresh. =      1.0E-08
     press convergence thresh. =      1.0E-03
     Exchange-correlation= PBE
                           (   1   4   3   4   0   0   0)
     nstep                     =           50

     celldm(1)=   4.330000  celldm(2)=   0.000000  celldm(3)=   9.353349
     celldm(4)=   0.000000  celldm(5)=   0.000000  celldm(6)=   0.000000

     crystal axes: (cart. coord. in units of alat)
               a(1) = (   1.000000   0.000000   0.000000 )
               a(2) = (  -0.500000   0.866025   0.000000 )
               a(3) = (   0.000000   0.000000   9.353349 )

     reciprocal axes: (cart. coord. in units 2 pi/alat)
               b(1) = (  1.000000  0.577350  0.000000 )
               b(2) = (  0.000000  1.154701  0.000000 )
               b(3) = (  0.000000  0.000000  0.106914 )

     PseudoPot. # 1 for C  read from file:
     /home/yhkim/qe-6.7/pseudo/ONCV1/1.2/C_ONCV_PBE-1.2.upf
     MD5 check sum: 1a5f83a7b1f58d24996abe00ed223ac6
     Pseudo is Norm-conserving, Zval =  4.0
     Generated using ONCVPSP code by D. R. Hamann
     Using radial grid of  602 points,  4 beta functions with:
                l(1) =   0
                l(2) =   0
                l(3) =   1
                l(4) =   1

     atomic species   valence    mass     pseudopotential
        C              4.00    12.01070     C ( 1.00)

     24 Sym. Ops., with inversion, found

   Cartesian axes

     site n.     atom                  positions (alat units)
         1           C   tau(   1) = (  -0.0000000   0.5773503   4.6766744  )
         2           C   tau(   2) = (   0.5000000   0.2886751   4.6766744  )

     number of k points=    27  Methfessel-Paxton smearing, width (Ry)=  0.0100
                       cart. coord. in units 2pi/alat
        k(    1) = (   0.0000000   0.0000000   0.0000000), wk =   0.0088889
        k(    2) = (   0.0000000   0.0769800   0.0000000), wk =   0.0533333
        k(    3) = (   0.0000000   0.1539601   0.0000000), wk =   0.0533333
        k(    4) = (   0.0000000   0.2309401   0.0000000), wk =   0.0533333
        k(    5) = (   0.0000000   0.3079201   0.0000000), wk =   0.0533333
        k(    6) = (   0.0000000   0.3849002   0.0000000), wk =   0.0533333
        k(    7) = (   0.0000000   0.4618802   0.0000000), wk =   0.0533333
        k(    8) = (   0.0000000   0.5388603   0.0000000), wk =   0.0533333
        k(    9) = (   0.0666667   0.1154701   0.0000000), wk =   0.0533333
        k(   10) = (   0.0666667   0.1924501   0.0000000), wk =   0.1066667
        k(   11) = (   0.0666667   0.2694301   0.0000000), wk =   0.1066667
        k(   12) = (   0.0666667   0.3464102   0.0000000), wk =   0.1066667
        k(   13) = (   0.0666667   0.4233902   0.0000000), wk =   0.1066667
        k(   14) = (   0.0666667   0.5003702   0.0000000), wk =   0.1066667
        k(   15) = (   0.0666667   0.5773503   0.0000000), wk =   0.0533333
        k(   16) = (   0.1333333   0.2309401   0.0000000), wk =   0.0533333
        k(   17) = (   0.1333333   0.3079201   0.0000000), wk =   0.1066667
        k(   18) = (   0.1333333   0.3849002   0.0000000), wk =   0.1066667
        k(   19) = (   0.1333333   0.4618802   0.0000000), wk =   0.1066667
        k(   20) = (   0.1333333   0.5388603   0.0000000), wk =   0.1066667
        k(   21) = (   0.2000000   0.3464102   0.0000000), wk =   0.0533333
        k(   22) = (   0.2000000   0.4233902   0.0000000), wk =   0.1066667
        k(   23) = (   0.2000000   0.5003702   0.0000000), wk =   0.1066667
        k(   24) = (   0.2000000   0.5773503   0.0000000), wk =   0.0533333
        k(   25) = (   0.2666667   0.4618802   0.0000000), wk =   0.0533333
        k(   26) = (   0.2666667   0.5388603   0.0000000), wk =   0.1066667
        k(   27) = (   0.3333333   0.5773503   0.0000000), wk =   0.0177778

     Initial potential from superposition of free atoms

     starting charge    7.98607, renormalised to    8.00000

     negative rho (up, down):  1.049E-04 0.000E+00
     Starting wfcs are random

     Self-consistent Calculation

     iteration #  1     ecut=    50.00 Ry     beta= 0.70
     Davidson diagonalization with overlap
     ethr =  1.00E-02,  avg # of iterations = 12.4

     negative rho (up, down):  1.244E-07 0.000E+00

     total energy              =     -22.68109648 Ry
     estimated scf accuracy    <       0.30490074 Ry

[...]

     End of self-consistent calculation

          k = 0.0000 0.0000 0.0000 (  3907 PWs)   bands (ev):

   -24.9442 -12.7911  -6.5010  -1.0206  -0.2090   0.5668   0.9223   2.2473

[...]

     the Fermi energy is    -3.5194 ev

!    total energy              =     -22.72783509 Ry
     estimated scf accuracy    <          6.1E-09 Ry
     smearing contrib. (-TS)   =      -0.00003668 Ry
     internal energy E=F+TS    =     -22.72779842 Ry

     The total energy is F=E-TS. E is the sum of the following terms:
     one-electron contribution =    -448.77647964 Ry
     hartree contribution      =     225.17008477 Ry
     xc contribution           =      -7.33981305 Ry
     ewald contribution        =     208.21840950 Ry

     convergence has been achieved in   6 iterations

     Forces acting on atoms (cartesian axes, Ry/au):

     atom    1 type  1   force =     0.00000000    0.00000000    0.00000000
     atom    2 type  1   force =     0.00000000    0.00000000    0.00000000

     Total force =     0.000000     Total SCF correction =     0.000000

     Computing stress (Cartesian axis) and pressure

          total   stress  (Ry/bohr**3)                   (kbar)     P=      106.90
   0.00115498   0.00000000   0.00000000          169.90        0.00        0.00
   0.00000000   0.00115498   0.00000000            0.00      169.90        0.00
   0.00000000   0.00000000  -0.00012994            0.00        0.00      -19.11

     BFGS Geometry Optimization
     Energy error            =      0.0E+00
     Gradient error          =      0.0E+00
     Cell gradient error     =      1.2E-03

     number of scf cycles    =   1
     number of bfgs steps    =   0

     enthalpy new            =     -22.7278350934 Ry

     new trust radius        =       0.1480898156 bohr
     new conv_thr            =       0.0000000100 Ry

     new unit-cell volume =    696.12344 a.u.^3 (   103.15485 Ang^3 )
     density =      0.38669 g/cm^3

CELL_PARAMETERS (alat=  4.33000000)
   1.028874500   0.000000000   0.000000000
  -0.514437250   0.891031455   0.000000000
   0.000000000   0.000000000   9.353348730

ATOMIC_POSITIONS (crystal)
C             0.3333333333        0.6666666667        0.5000000000
C             0.6666666667        0.3333333333        0.5000000000

     Writing output data file ./work/LiC433.save/
     NEW-OLD atomic charge density approx. for the potential

     negative rho (up, down):  6.973E-05 0.000E+00
     extrapolated charge    8.44195, renormalised to    8.00000

[...]

     iteration #  1     ecut=    50.00 Ry     beta= 0.70
     Davidson diagonalization with overlap
     c_bands:  1 eigenvalues not converged
     c_bands:  2 eigenvalues not converged
     c_bands:  2 eigenvalues not converged
     c_bands:  2 eigenvalues not converged
     c_bands:  3 eigenvalues not converged
     c_bands:  3 eigenvalues not converged
     c_bands:  1 eigenvalues not converged
     c_bands:  2 eigenvalues not converged
     c_bands:  4 eigenvalues not converged
     c_bands:  3 eigenvalues not converged
     c_bands:  4 eigenvalues not converged
     c_bands:  5 eigenvalues not converged
     c_bands:  2 eigenvalues not converged
     c_bands:  2 eigenvalues not converged
     c_bands:  3 eigenvalues not converged
     c_bands:  4 eigenvalues not converged
     c_bands:  4 eigenvalues not converged
     c_bands:  3 eigenvalues not converged
     c_bands:  3 eigenvalues not converged
     c_bands:  5 eigenvalues not converged
     c_bands:  4 eigenvalues not converged
     c_bands:  5 eigenvalues not converged
     c_bands:  5 eigenvalues not converged
     c_bands:  5 eigenvalues not converged
     ethr =  1.00E-06,  avg # of iterations = 19.6

[...]

          k =-0.0000 0.0748 0.0000 (  3895 PWs)   bands (ev):

[...]

     Energy error            =      3.4E-02
     Gradient error          =      0.0E+00
     Cell gradient error     =      5.4E-04

[...]

     enthalpy old            =     -22.7278350934 Ry
     enthalpy new            =     -22.7619860886 Ry

     CASE: enthalpy_new < enthalpy_old

[...]

     Writing output data file ./work/LiC433.save/
     NEW-OLD atomic charge density approx. for the potential

     negative rho (up, down):  3.805E-06 0.000E+00
     extrapolated charge    8.07874, renormalised to    8.00000

[...]

     Writing output data file ./work/LiC433.save/
     NEW-OLD atomic charge density approx. for the potential
     extrapolated charge    8.00887, renormalised to    8.00000

[...]

     small trust_radius: resetting bfgs history

[...]

     Threshold (ethr) on eigenvalues was too large:
     Diagonalizing with lowered threshold

     Davidson diagonalization with overlap
     ethr =  1.37E-11,  avg # of iterations =  1.8

[...]

     Energy error            =      8.7E-10
     Gradient error          =      1.6E-26
     Cell gradient error     =      1.0E-07

     number of scf cycles    =   6
     number of bfgs steps    =   5

     enthalpy old            =     -22.7736561820 Ry
     enthalpy new            =     -22.7736561828 Ry

     CASE: enthalpy_new < enthalpy_old

     Message from routine bfgs:
     history already reset at previous step: stopping
     small trust_radius: resetting bfgs history

     new trust radius        =       0.0000137485 bohr
     new conv_thr            =            1.0E-10 Ry

     new unit-cell volume =    741.38173 a.u.^3 (   109.86144 Ang^3 )
     density =      0.36308 g/cm^3

[...]

ATOMIC_POSITIONS (crystal)
C             0.3333333333        0.6666666667        0.5000000000
C             0.6666666667        0.3333333333        0.5000000000

     Writing output data file ./work/LiC433.save/
     NEW-OLD atomic charge density approx. for the potential
     extrapolated charge    8.00004, renormalised to    8.00000

[...]

     Threshold (ethr) on eigenvalues was too large:
     Diagonalizing with lowered threshold

     Davidson diagonalization with overlap
     ethr =  7.06E-12,  avg # of iterations =  1.8

[...]

     Message from routine bfgs:
     history already reset at previous step: stopping
     Energy error            =      2.8E-10
     Gradient error          =      1.6E-26
     Cell gradient error     =      6.1E-08

     bfgs converged in   7 scf cycles and   6 bfgs steps
     (criteria: energy <  1.0E-04 Ry, force <  1.0E-08Ry/Bohr, cell <  1.0E-03kbar)

     End of BFGS Geometry Optimization

     Final enthalpy =     -22.7736561831 Ry

     File ./work/LiC433.bfgs deleted, as requested
Begin final coordinates
     new unit-cell volume =    741.38173 a.u.^3 (   109.86144 Ang^3 )
     density =      0.36308 g/cm^3

CELL_PARAMETERS (alat=  4.33000000)
   1.061793875   0.000000000   0.000000000
  -0.530896937   0.919540469   0.000000000
   0.000000000   0.000000000   9.353348730

ATOMIC_POSITIONS (crystal)
C             0.3333333333        0.6666666667        0.5000000000
C             0.6666666667        0.3333333333        0.5000000000
End final coordinates

     Writing output data file ./work/LiC433.save/

     Final scf calculation at the relaxed structure.
     The G-vectors are recalculated for the final unit cell
     Results may differ from those at the preceding step.

     bravais-lattice index     =            4
     lattice parameter (alat)  =       4.3300  a.u.
     unit-cell volume          =     741.3817 (a.u.)^3
     number of atoms/cell      =            2
     number of atomic types    =            1
     number of electrons       =         8.00
     number of Kohn-Sham states=            8
     kinetic-energy cutoff     =      50.0000  Ry
     charge density cutoff     =     200.0000  Ry
     scf convergence threshold =      1.0E-10
     mixing beta               =       0.7000
     number of iterations used =            8  plain     mixing
     press convergence thresh. =      1.0E-03
     Exchange-correlation= PBE
                           (   1   4   3   4   0   0   0)

     celldm(1)=   4.330000  celldm(2)=   0.000000  celldm(3)=   9.353349
     celldm(4)=   0.000000  celldm(5)=   0.000000  celldm(6)=   0.000000

     crystal axes: (cart. coord. in units of alat)
               a(1) = (   1.061794   0.000000   0.000000 )
               a(2) = (  -0.530897   0.919540   0.000000 )
               a(3) = (   0.000000   0.000000   9.353349 )

     reciprocal axes: (cart. coord. in units 2 pi/alat)
               b(1) = (  0.941802  0.543750  0.000000 )
               b(2) = ( -0.000000  1.087500  0.000000 )
               b(3) = (  0.000000  0.000000  0.106914 )

     PseudoPot. # 1 for C  read from file:
     /home/yhkim/qe-6.7/pseudo/ONCV1/1.2/C_ONCV_PBE-1.2.upf
     MD5 check sum: 1a5f83a7b1f58d24996abe00ed223ac6
     Pseudo is Norm-conserving, Zval =  4.0
     Generated using ONCVPSP code by D. R. Hamann
     Using radial grid of  602 points,  4 beta functions with:
                l(1) =   0
                l(2) =   0
                l(3) =   1
                l(4) =   1

     atomic species   valence    mass     pseudopotential
        C              4.00    12.01070     C ( 1.00)

     24 Sym. Ops., with inversion, found

   Cartesian axes

     site n.     atom                  positions (alat units)
         1           C   tau(   1) = (  -0.0000000   0.6130270   4.6766744  )
         2           C   tau(   2) = (   0.5308969   0.3065135   4.6766744  )

     number of k points=    27  Methfessel-Paxton smearing, width (Ry)=  0.0100
                       cart. coord. in units 2pi/alat
        k(    1) = (   0.0000000   0.0000000   0.0000000), wk =   0.0088889
        k(    2) = (  -0.0000000   0.0725000   0.0000000), wk =   0.0533333
        k(    3) = (  -0.0000000   0.1450000   0.0000000), wk =   0.0533333
        k(    4) = (  -0.0000000   0.2174999   0.0000000), wk =   0.0533333
        k(    5) = (  -0.0000000   0.2899999   0.0000000), wk =   0.0533333
        k(    6) = (  -0.0000000   0.3624999   0.0000000), wk =   0.0533333
        k(    7) = (  -0.0000000   0.4349999   0.0000000), wk =   0.0533333
        k(    8) = (  -0.0000000   0.5074999   0.0000000), wk =   0.0533333
        k(    9) = (   0.0627868   0.1087500   0.0000000), wk =   0.0533333
        k(   10) = (   0.0627868   0.1812500   0.0000000), wk =   0.1066667
        k(   11) = (   0.0627868   0.2537499   0.0000000), wk =   0.1066667
        k(   12) = (   0.0627868   0.3262499   0.0000000), wk =   0.1066667
        k(   13) = (   0.0627868   0.3987499   0.0000000), wk =   0.1066667
        k(   14) = (   0.0627868   0.4712499   0.0000000), wk =   0.1066667
        k(   15) = (   0.0627868   0.5437499   0.0000000), wk =   0.0533333
        k(   16) = (   0.1255737   0.2174999   0.0000000), wk =   0.0533333
        k(   17) = (   0.1255737   0.2899999   0.0000000), wk =   0.1066667
        k(   18) = (   0.1255737   0.3624999   0.0000000), wk =   0.1066667
        k(   19) = (   0.1255737   0.4349999   0.0000000), wk =   0.1066667
        k(   20) = (   0.1255737   0.5074999   0.0000000), wk =   0.1066667
        k(   21) = (   0.1883605   0.3262499   0.0000000), wk =   0.0533333
        k(   22) = (   0.1883605   0.3987499   0.0000000), wk =   0.1066667
        k(   23) = (   0.1883605   0.4712499   0.0000000), wk =   0.1066667
        k(   24) = (   0.1883605   0.5437499   0.0000000), wk =   0.0533333
        k(   25) = (   0.2511473   0.4349999   0.0000000), wk =   0.0533333
        k(   26) = (   0.2511473   0.5074999   0.0000000), wk =   0.1066667
        k(   27) = (   0.3139341   0.5437499   0.0000000), wk =   0.0177778

     Initial potential from superposition of free atoms

     starting charge    7.98607, renormalised to    8.00000

     negative rho (up, down):  1.097E-04 0.000E+00
     Starting wfcs are random

     Self-consistent Calculation

     iteration #  1     ecut=    50.00 Ry     beta= 0.70
     Davidson diagonalization with overlap
     c_bands:  5 eigenvalues not converged
     c_bands:  2 eigenvalues not converged
     c_bands:  5 eigenvalues not converged
     c_bands:  5 eigenvalues not converged
     c_bands:  4 eigenvalues not converged
     c_bands:  3 eigenvalues not converged
     c_bands:  3 eigenvalues not converged
     c_bands:  2 eigenvalues not converged
     c_bands:  3 eigenvalues not converged
     c_bands:  5 eigenvalues not converged
     c_bands:  4 eigenvalues not converged
     c_bands:  4 eigenvalues not converged
     c_bands:  3 eigenvalues not converged
     c_bands:  2 eigenvalues not converged
     c_bands:  2 eigenvalues not converged
     c_bands:  5 eigenvalues not converged
     c_bands:  4 eigenvalues not converged
     c_bands:  3 eigenvalues not converged
     c_bands:  3 eigenvalues not converged
     c_bands:  3 eigenvalues not converged
     c_bands:  4 eigenvalues not converged
     c_bands:  3 eigenvalues not converged
     c_bands:  3 eigenvalues not converged
     c_bands:  3 eigenvalues not converged
     c_bands:  3 eigenvalues not converged
     c_bands:  3 eigenvalues not converged
     c_bands:  3 eigenvalues not converged
     ethr =  1.00E-06,  avg # of iterations = 21.5

[...]

     negative rho (up, down):  2.667E-06 0.000E+00

[...]

     total energy              =     -22.78896829 Ry
     estimated scf accuracy    <          1.0E-09 Ry

     iteration #  7     ecut=    50.00 Ry     beta= 0.70
     Davidson diagonalization with overlap
     ethr =  1.25E-11,  avg # of iterations =  3.0

     End of self-consistent calculation

[...]

          k =-0.0000 0.5075 0.0000 (  4453 PWs)   bands (ev):

[...]

          k = 0.3139 0.5437 0.0000 (  4395 PWs)   bands (ev):

   -16.8769 -16.8769 -15.0231  -4.1251  -4.1251   6.5598   9.0264   9.0264

     the Fermi energy is    -4.1251 ev

!    total energy              =     -22.78896829 Ry
     estimated scf accuracy    <          1.2E-11 Ry
     smearing contrib. (-TS)   =      -0.00005015 Ry
     internal energy E=F+TS    =     -22.78891814 Ry

     The total energy is F=E-TS. E is the sum of the following terms:
     one-electron contribution =    -397.44699621 Ry
     hartree contribution      =     199.36962735 Ry
     xc contribution           =      -7.06813409 Ry
     ewald contribution        =     182.35658480 Ry

     convergence has been achieved in   7 iterations

     Forces acting on atoms (cartesian axes, Ry/au):

     atom    1 type  1   force =     0.00000000    0.00000000    0.00000000
     atom    2 type  1   force =     0.00000000    0.00000000    0.00000000

     Total force =     0.000000     Total SCF correction =     0.000000

     Computing stress (Cartesian axis) and pressure

          total   stress  (Ry/bohr**3)                   (kbar)     P=        1.80
   0.00007412  -0.00000000  -0.00000000           10.90       -0.00       -0.00
  -0.00000000   0.00007412   0.00000000           -0.00       10.90        0.00
   0.00000000  -0.00000000  -0.00011144            0.00       -0.00      -16.39

     Writing output data file ./work/LiC433.save/

     General routines

     Parallel routines

   This run was terminated on:  14:10:21  19Jan2024

   JOB DONE.