     Program PWSCF v.6.7MaX starts on 19Jan2024 at 14:14:56

     R & G space division:  proc/nbgrp/npool/nimage =      32
     Waiting for input...
     Reading input from standard input

     Current dimensions of program PWSCF are:
     Max number of different atomic species (ntypx) = 10
     Max number of k-points (npk) =  40000
     Max angular momentum in pseudopotentials (lmaxx) =  3
     Message from routine read_pp_mesh:
     mesh size missing, using the one in header

     Subspace diagonalization in iterative solution of the eigenvalue problem:
     a serial algorithm will be used

     bravais-lattice index     =            4
     lattice parameter (alat)  =       4.7200  a.u.
     unit-cell volume          =     781.3932 (a.u.)^3
     number of atoms/cell      =            2
     number of atomic types    =            1
     number of electrons       =         8.00
     number of Kohn-Sham states=            8
     kinetic-energy cutoff     =      50.0000  Ry
     charge density cutoff     =     200.0000  Ry
     scf convergence threshold =      1.0E-08
     mixing beta               =       0.7000
     number of iterations used =            8  plain     mixing
     energy convergence thresh.=      1.0E-04
     force convergence thresh. =      1.0E-08
     press convergence thresh. =      1.0E-03
     Exchange-correlation= PBE
                           (   1   4   3   4   0   0   0)
     nstep                     =           50

     celldm(1)=   4.720000  celldm(2)=   0.000000  celldm(3)=   8.580508
     celldm(4)=   0.000000  celldm(5)=   0.000000  celldm(6)=   0.000000

     crystal axes: (cart. coord. in units of alat)
               a(1) = (   1.000000   0.000000   0.000000 )
               a(2) = (  -0.500000   0.866025   0.000000 )
               a(3) = (   0.000000   0.000000   8.580508 )

     reciprocal axes: (cart. coord. in units 2 pi/alat)
               b(1) = (  1.000000  0.577350  0.000000 )
               b(2) = (  0.000000  1.154701  0.000000 )
               b(3) = (  0.000000  0.000000  0.116543 )

     PseudoPot. # 1 for C  read from file:
     /home/yhkim/qe-6.7/pseudo/ONCV1/1.2/C_ONCV_PBE-1.2.upf
     MD5 check sum: 1a5f83a7b1f58d24996abe00ed223ac6
     Pseudo is Norm-conserving, Zval =  4.0
     Generated using ONCVPSP code by D. R. Hamann
     Using radial grid of  602 points,  4 beta functions with:
                l(1) =   0
                l(2) =   0
                l(3) =   1
                l(4) =   1

     atomic species   valence    mass     pseudopotential
        C              4.00    12.01070     C ( 1.00)

     24 Sym. Ops., with inversion, found

   Cartesian axes

     site n.     atom                  positions (alat units)
         1           C   tau(   1) = (  -0.0000000   0.5773503   4.2902542  )
         2           C   tau(   2) = (   0.5000000   0.2886751   4.2902542  )

     number of k points=    27  Methfessel-Paxton smearing, width (Ry)=  0.0100
                       cart. coord. in units 2pi/alat
        k(    1) = (   0.0000000   0.0000000   0.0000000), wk =   0.0088889
        k(    2) = (   0.0000000   0.0769800   0.0000000), wk =   0.0533333
        k(    3) = (   0.0000000   0.1539601   0.0000000), wk =   0.0533333
        k(    4) = (   0.0000000   0.2309401   0.0000000), wk =   0.0533333
        k(    5) = (   0.0000000   0.3079201   0.0000000), wk =   0.0533333
        k(    6) = (   0.0000000   0.3849002   0.0000000), wk =   0.0533333
        k(    7) = (   0.0000000   0.4618802   0.0000000), wk =   0.0533333
        k(    8) = (   0.0000000   0.5388603   0.0000000), wk =   0.0533333
        k(    9) = (   0.0666667   0.1154701   0.0000000), wk =   0.0533333
        k(   10) = (   0.0666667   0.1924501   0.0000000), wk =   0.1066667
        k(   11) = (   0.0666667   0.2694301   0.0000000), wk =   0.1066667
        k(   12) = (   0.0666667   0.3464102   0.0000000), wk =   0.1066667
        k(   13) = (   0.0666667   0.4233902   0.0000000), wk =   0.1066667
        k(   14) = (   0.0666667   0.5003702   0.0000000), wk =   0.1066667
        k(   15) = (   0.0666667   0.5773503   0.0000000), wk =   0.0533333
        k(   16) = (   0.1333333   0.2309401   0.0000000), wk =   0.0533333
        k(   17) = (   0.1333333   0.3079201   0.0000000), wk =   0.1066667
        k(   18) = (   0.1333333   0.3849002   0.0000000), wk =   0.1066667
        k(   19) = (   0.1333333   0.4618802   0.0000000), wk =   0.1066667
        k(   20) = (   0.1333333   0.5388603   0.0000000), wk =   0.1066667
        k(   21) = (   0.2000000   0.3464102   0.0000000), wk =   0.0533333
        k(   22) = (   0.2000000   0.4233902   0.0000000), wk =   0.1066667
        k(   23) = (   0.2000000   0.5003702   0.0000000), wk =   0.1066667
        k(   24) = (   0.2000000   0.5773503   0.0000000), wk =   0.0533333
        k(   25) = (   0.2666667   0.4618802   0.0000000), wk =   0.0533333
        k(   26) = (   0.2666667   0.5388603   0.0000000), wk =   0.1066667
        k(   27) = (   0.3333333   0.5773503   0.0000000), wk =   0.0177778

     Initial potential from superposition of free atoms

     starting charge    7.98607, renormalised to    8.00000

     negative rho (up, down):  1.181E-04 0.000E+00
     Starting wfcs are random

     Self-consistent Calculation

     iteration #  1     ecut=    50.00 Ry     beta= 0.70
     Davidson diagonalization with overlap
     ethr =  1.00E-02,  avg # of iterations = 11.5

     negative rho (up, down):  9.900E-08 0.000E+00

     total energy              =     -22.76236174 Ry
     estimated scf accuracy    <       0.14681500 Ry

[...]

     iteration #  4     ecut=    50.00 Ry     beta= 0.70
     Davidson diagonalization with overlap
     c_bands:  1 eigenvalues not converged
     ethr =  1.75E-06,  avg # of iterations =  7.1

[...]

     End of self-consistent calculation

          k = 0.0000 0.0000 0.0000 (  4687 PWs)   bands (ev):

   -23.5922 -11.7245  -7.4496  -7.4496  -0.9721  -0.2018   0.5896   0.9441

[...]

     the Fermi energy is    -4.3517 ev

!    total energy              =     -22.78955378 Ry
     estimated scf accuracy    <          3.7E-09 Ry
     smearing contrib. (-TS)   =      -0.00005015 Ry
     internal energy E=F+TS    =     -22.78950363 Ry

     The total energy is F=E-TS. E is the sum of the following terms:
     one-electron contribution =    -376.86907466 Ry
     hartree contribution      =     189.02814315 Ry
     xc contribution           =      -6.95534681 Ry
     ewald contribution        =     172.00677469 Ry

     convergence has been achieved in   6 iterations

     Forces acting on atoms (cartesian axes, Ry/au):

     atom    1 type  1   force =     0.00000000    0.00000000    0.00000000
     atom    2 type  1   force =    -0.00000000   -0.00000000    0.00000000

     Total force =     0.000000     Total SCF correction =     0.000000

     Computing stress (Cartesian axis) and pressure

          total   stress  (Ry/bohr**3)                   (kbar)     P=      -30.40
  -0.00025822  -0.00000000   0.00000000          -37.99       -0.00        0.00
  -0.00000000  -0.00025822   0.00000000           -0.00      -37.99        0.00
   0.00000000   0.00000000  -0.00010361            0.00        0.00      -15.24

     BFGS Geometry Optimization
     Energy error            =      0.0E+00
     Gradient error          =      1.7E-26
     Cell gradient error     =      2.6E-04

     number of scf cycles    =   1
     number of bfgs steps    =   0

     enthalpy new            =     -22.7895537803 Ry

     new trust radius        =       0.0360906379 bohr
     new conv_thr            =       0.0000000100 Ry

     new unit-cell volume =    771.33724 a.u.^3 (   114.30039 Ang^3 )
     density =      0.34898 g/cm^3

CELL_PARAMETERS (alat=  4.72000000)
   0.993544502  -0.000000000   0.000000000
  -0.496772251   0.860434779   0.000000000
   0.000000000   0.000000000   8.580508475

ATOMIC_POSITIONS (crystal)
C             0.3333333333        0.6666666667        0.5000000000
C             0.6666666667        0.3333333333        0.5000000000

     Writing output data file ./work/LiC472.save/
     NEW-OLD atomic charge density approx. for the potential

     negative rho (up, down):  2.971E-06 0.000E+00
     extrapolated charge    7.89588, renormalised to    8.00000

[...]

     Energy error            =      2.2E-03
     Gradient error          =      1.7E-26
     Cell gradient error     =      1.8E-04

[...]

     enthalpy old            =     -22.7895537803 Ry
     enthalpy new            =     -22.7917500198 Ry

     CASE: enthalpy_new < enthalpy_old

[...]

     Writing output data file ./work/LiC472.save/
     NEW-OLD atomic charge density approx. for the potential

     negative rho (up, down):  7.391E-07 0.000E+00
     extrapolated charge    7.89914, renormalised to    8.00000

[...]

     Writing output data file ./work/LiC472.save/
     NEW-OLD atomic charge density approx. for the potential
     extrapolated charge    8.00472, renormalised to    8.00000

[...]

     Threshold (ethr) on eigenvalues was too large:
     Diagonalizing with lowered threshold

     Davidson diagonalization with overlap
     ethr =  8.33E-08,  avg # of iterations =  1.0

[...]

     small trust_radius: resetting bfgs history

[...]

     Energy error            =      2.5E-10
     Gradient error          =      1.8E-26
     Cell gradient error     =      5.4E-08

     number of scf cycles    =   6
     number of bfgs steps    =   5

     enthalpy old            =     -22.7935700605 Ry
     enthalpy new            =     -22.7935700607 Ry

     CASE: enthalpy_new < enthalpy_old

     Message from routine bfgs:
     history already reset at previous step: stopping
     small trust_radius: resetting bfgs history

     new trust radius        =       0.0000073785 bohr
     new conv_thr            =            1.0E-10 Ry

     new unit-cell volume =    751.30640 a.u.^3 (   111.33212 Ang^3 )
     density =      0.35828 g/cm^3

[...]

ATOMIC_POSITIONS (crystal)
C             0.3333333333        0.6666666667        0.5000000000
C             0.6666666667        0.3333333333        0.5000000000

     Writing output data file ./work/LiC472.save/
     NEW-OLD atomic charge density approx. for the potential
     extrapolated charge    7.99998, renormalised to    8.00000

[...]

     Threshold (ethr) on eigenvalues was too large:
     Diagonalizing with lowered threshold

     Davidson diagonalization with overlap
     ethr =  3.28E-12,  avg # of iterations =  1.8

[...]

     Message from routine bfgs:
     history already reset at previous step: stopping
     Energy error            =      1.0E-10
     Gradient error          =      0.0E+00
     Cell gradient error     =      3.6E-08

     bfgs converged in   7 scf cycles and   6 bfgs steps
     (criteria: energy <  1.0E-04 Ry, force <  1.0E-08Ry/Bohr, cell <  1.0E-03kbar)

     End of BFGS Geometry Optimization

     Final enthalpy =     -22.7935700608 Ry

     File ./work/LiC472.bfgs deleted, as requested
Begin final coordinates
     new unit-cell volume =    751.30640 a.u.^3 (   111.33212 Ang^3 )
     density =      0.35828 g/cm^3

CELL_PARAMETERS (alat=  4.72000000)
   0.980558974  -0.000000000   0.000000000
  -0.490279487   0.849188981   0.000000000
   0.000000000   0.000000000   8.580508475

ATOMIC_POSITIONS (crystal)
C             0.3333333333        0.6666666667        0.5000000000
C             0.6666666667        0.3333333333        0.5000000000
End final coordinates

     Writing output data file ./work/LiC472.save/

     Final scf calculation at the relaxed structure.
     The G-vectors are recalculated for the final unit cell
     Results may differ from those at the preceding step.

     bravais-lattice index     =            4
     lattice parameter (alat)  =       4.7200  a.u.
     unit-cell volume          =     751.3064 (a.u.)^3
     number of atoms/cell      =            2
     number of atomic types    =            1
     number of electrons       =         8.00
     number of Kohn-Sham states=            8
     kinetic-energy cutoff     =      50.0000  Ry
     charge density cutoff     =     200.0000  Ry
     scf convergence threshold =      1.0E-10
     mixing beta               =       0.7000
     number of iterations used =            8  plain     mixing
     press convergence thresh. =      1.0E-03
     Exchange-correlation= PBE
                           (   1   4   3   4   0   0   0)

     celldm(1)=   4.720000  celldm(2)=   0.000000  celldm(3)=   8.580508
     celldm(4)=   0.000000  celldm(5)=   0.000000  celldm(6)=   0.000000

     crystal axes: (cart. coord. in units of alat)
               a(1) = (   0.980559  -0.000000   0.000000 )
               a(2) = (  -0.490279   0.849189   0.000000 )
               a(3) = (   0.000000   0.000000   8.580508 )

     reciprocal axes: (cart. coord. in units 2 pi/alat)
               b(1) = (  1.019826  0.588797  0.000000 )
               b(2) = (  0.000000  1.177594  0.000000 )
               b(3) = (  0.000000  0.000000  0.116543 )

     PseudoPot. # 1 for C  read from file:
     /home/yhkim/qe-6.7/pseudo/ONCV1/1.2/C_ONCV_PBE-1.2.upf
     MD5 check sum: 1a5f83a7b1f58d24996abe00ed223ac6
     Pseudo is Norm-conserving, Zval =  4.0
     Generated using ONCVPSP code by D. R. Hamann
     Using radial grid of  602 points,  4 beta functions with:
                l(1) =   0
                l(2) =   0
                l(3) =   1
                l(4) =   1

     atomic species   valence    mass     pseudopotential
        C              4.00    12.01070     C ( 1.00)

     24 Sym. Ops., with inversion, found

   Cartesian axes

     site n.     atom                  positions (alat units)
         1           C   tau(   1) = (  -0.0000000   0.5661260   4.2902542  )
         2           C   tau(   2) = (   0.4902795   0.2830630   4.2902542  )

     number of k points=    27  Methfessel-Paxton smearing, width (Ry)=  0.0100
                       cart. coord. in units 2pi/alat
        k(    1) = (   0.0000000   0.0000000   0.0000000), wk =   0.0088889
        k(    2) = (   0.0000000   0.0785063   0.0000000), wk =   0.0533333
        k(    3) = (   0.0000000   0.1570126   0.0000000), wk =   0.0533333
        k(    4) = (   0.0000000   0.2355188   0.0000000), wk =   0.0533333
        k(    5) = (   0.0000000   0.3140251   0.0000000), wk =   0.0533333
        k(    6) = (   0.0000000   0.3925314   0.0000000), wk =   0.0533333
        k(    7) = (   0.0000000   0.4710377   0.0000000), wk =   0.0533333
        k(    8) = (   0.0000000   0.5495439   0.0000000), wk =   0.0533333
        k(    9) = (   0.0679884   0.1177594   0.0000000), wk =   0.0533333
        k(   10) = (   0.0679884   0.1962657   0.0000000), wk =   0.1066667
        k(   11) = (   0.0679884   0.2747720   0.0000000), wk =   0.1066667
        k(   12) = (   0.0679884   0.3532783   0.0000000), wk =   0.1066667
        k(   13) = (   0.0679884   0.4317845   0.0000000), wk =   0.1066667
        k(   14) = (   0.0679884   0.5102908   0.0000000), wk =   0.1066667
        k(   15) = (   0.0679884   0.5887971   0.0000000), wk =   0.0533333
        k(   16) = (   0.1359769   0.2355188   0.0000000), wk =   0.0533333
        k(   17) = (   0.1359769   0.3140251   0.0000000), wk =   0.1066667
        k(   18) = (   0.1359769   0.3925314   0.0000000), wk =   0.1066667
        k(   19) = (   0.1359769   0.4710377   0.0000000), wk =   0.1066667
        k(   20) = (   0.1359769   0.5495439   0.0000000), wk =   0.1066667
        k(   21) = (   0.2039653   0.3532783   0.0000000), wk =   0.0533333
        k(   22) = (   0.2039653   0.4317845   0.0000000), wk =   0.1066667
        k(   23) = (   0.2039653   0.5102908   0.0000000), wk =   0.1066667
        k(   24) = (   0.2039653   0.5887971   0.0000000), wk =   0.0533333
        k(   25) = (   0.2719537   0.4710377   0.0000000), wk =   0.0533333
        k(   26) = (   0.2719537   0.5495439   0.0000000), wk =   0.1066667
        k(   27) = (   0.3399422   0.5887971   0.0000000), wk =   0.0177778

     Initial potential from superposition of free atoms

     starting charge    7.98607, renormalised to    8.00000

     negative rho (up, down):  1.152E-04 0.000E+00
     Starting wfcs are random

     Self-consistent Calculation

     iteration #  1     ecut=    50.00 Ry     beta= 0.70
     Davidson diagonalization with overlap
     c_bands:  5 eigenvalues not converged
     c_bands:  3 eigenvalues not converged
     c_bands:  5 eigenvalues not converged
     c_bands:  4 eigenvalues not converged
     c_bands:  4 eigenvalues not converged
     c_bands:  4 eigenvalues not converged
     c_bands:  2 eigenvalues not converged
     c_bands:  3 eigenvalues not converged
     c_bands:  3 eigenvalues not converged
     c_bands:  5 eigenvalues not converged
     c_bands:  5 eigenvalues not converged
     c_bands:  4 eigenvalues not converged
     c_bands:  4 eigenvalues not converged
     c_bands:  2 eigenvalues not converged
     c_bands:  2 eigenvalues not converged
     c_bands:  4 eigenvalues not converged
     c_bands:  4 eigenvalues not converged
     c_bands:  4 eigenvalues not converged
     c_bands:  3 eigenvalues not converged
     c_bands:  3 eigenvalues not converged
     c_bands:  4 eigenvalues not converged
     c_bands:  3 eigenvalues not converged
     c_bands:  4 eigenvalues not converged
     c_bands:  3 eigenvalues not converged
     c_bands:  3 eigenvalues not converged
     c_bands:  3 eigenvalues not converged
     c_bands:  2 eigenvalues not converged
     ethr =  1.00E-06,  avg # of iterations = 21.5

[...]

     negative rho (up, down):  2.992E-06 0.000E+00

[...]

     total energy              =     -22.79045213 Ry
     estimated scf accuracy    <          1.1E-09 Ry

     iteration #  7     ecut=    50.00 Ry     beta= 0.70
     Davidson diagonalization with overlap
     ethr =  1.35E-11,  avg # of iterations =  3.0

     End of self-consistent calculation

[...]

          k = 0.3399 0.5888 0.0000 (  4449 PWs)   bands (ev):

   -16.8769 -16.8769 -14.9327  -4.1834  -4.1834   6.4705   8.8375   8.8375

     the Fermi energy is    -4.1834 ev

!    total energy              =     -22.79045213 Ry
     estimated scf accuracy    <          1.3E-11 Ry
     smearing contrib. (-TS)   =      -0.00005015 Ry
     internal energy E=F+TS    =     -22.79040198 Ry

     The total energy is F=E-TS. E is the sum of the following terms:
     one-electron contribution =    -392.13488813 Ry
     hartree contribution      =     196.69972027 Ry
     xc contribution           =      -7.03919176 Ry
     ewald contribution        =     179.68395764 Ry

     convergence has been achieved in   7 iterations

     Forces acting on atoms (cartesian axes, Ry/au):

     atom    1 type  1   force =    -0.00000000   -0.00000000    0.00000000
     atom    2 type  1   force =     0.00000000    0.00000000    0.00000000

     Total force =     0.000000     Total SCF correction =     0.000000

     Computing stress (Cartesian axis) and pressure

          total   stress  (Ry/bohr**3)                   (kbar)     P=       -7.05
  -0.00001710  -0.00000000  -0.00000000           -2.52       -0.00       -0.00
  -0.00000000  -0.00001710  -0.00000000           -0.00       -2.52       -0.00
  -0.00000000  -0.00000000  -0.00010958           -0.00       -0.00      -16.12

     Writing output data file ./work/LiC472.save/

     General routines

     Parallel routines

   This run was terminated on:  14:15: 6  19Jan2024

   JOB DONE.