     Program PWSCF v.6.7MaX starts on 19Jan2024 at 15:38:30

     R & G space division:  proc/nbgrp/npool/nimage =      32
     Waiting for input...
     Reading input from standard input

     Current dimensions of program PWSCF are:
     Max number of different atomic species (ntypx) = 10
     Max number of k-points (npk) =  40000
     Max angular momentum in pseudopotentials (lmaxx) =  3

     File ./work/LiC300.update deleted, as requested

     File ./work/LiC300.bfgs deleted, as requested
     Message from routine read_pp_mesh:
     mesh size missing, using the one in header

     Subspace diagonalization in iterative solution of the eigenvalue problem:
     a serial algorithm will be used

     bravais-lattice index     =            4
     lattice parameter (alat)  =       3.0000  a.u.
     unit-cell volume          =     315.6663 (a.u.)^3
     number of atoms/cell      =            2
     number of atomic types    =            1
     number of electrons       =         8.00
     number of Kohn-Sham states=            8
     kinetic-energy cutoff     =      50.0000  Ry
     charge density cutoff     =     200.0000  Ry
     scf convergence threshold =      1.0E-08
     mixing beta               =       0.7000
     number of iterations used =            8  plain     mixing
     energy convergence thresh.=      1.0E-04
     force convergence thresh. =      1.0E-08
     press convergence thresh. =      1.0E-03
     Exchange-correlation= PBE
                           (   1   4   3   4   0   0   0)
     nstep                     =           50

     celldm(1)=   3.000000  celldm(2)=   0.000000  celldm(3)=  13.500000
     celldm(4)=   0.000000  celldm(5)=   0.000000  celldm(6)=   0.000000

     crystal axes: (cart. coord. in units of alat)
               a(1) = (   1.000000   0.000000   0.000000 )
               a(2) = (  -0.500000   0.866025   0.000000 )
               a(3) = (   0.000000   0.000000  13.500000 )

     reciprocal axes: (cart. coord. in units 2 pi/alat)
               b(1) = (  1.000000  0.577350  0.000000 )
               b(2) = (  0.000000  1.154701  0.000000 )
               b(3) = (  0.000000  0.000000  0.074074 )

     PseudoPot. # 1 for C  read from file:
     /home/yhkim/qe-6.7/pseudo/ONCV1/1.2/C_ONCV_PBE-1.2.upf
     MD5 check sum: 1a5f83a7b1f58d24996abe00ed223ac6
     Pseudo is Norm-conserving, Zval =  4.0
     Generated using ONCVPSP code by D. R. Hamann
     Using radial grid of  602 points,  4 beta functions with:
                l(1) =   0
                l(2) =   0
                l(3) =   1
                l(4) =   1

     atomic species   valence    mass     pseudopotential
        C              4.00    12.01070     C ( 1.00)

     24 Sym. Ops., with inversion, found

   Cartesian axes

     site n.     atom                  positions (alat units)
         1           C   tau(   1) = (  -0.0000000   0.5773503   6.7500000  )
         2           C   tau(   2) = (   0.5000000   0.2886751   6.7500000  )

     number of k points=    27  Methfessel-Paxton smearing, width (Ry)=  0.0100
                       cart. coord. in units 2pi/alat
        k(    1) = (   0.0000000   0.0000000   0.0000000), wk =   0.0088889
        k(    2) = (   0.0000000   0.0769800   0.0000000), wk =   0.0533333
        k(    3) = (   0.0000000   0.1539601   0.0000000), wk =   0.0533333
        k(    4) = (   0.0000000   0.2309401   0.0000000), wk =   0.0533333
        k(    5) = (   0.0000000   0.3079201   0.0000000), wk =   0.0533333
        k(    6) = (   0.0000000   0.3849002   0.0000000), wk =   0.0533333
        k(    7) = (   0.0000000   0.4618802   0.0000000), wk =   0.0533333
        k(    8) = (   0.0000000   0.5388603   0.0000000), wk =   0.0533333
        k(    9) = (   0.0666667   0.1154701   0.0000000), wk =   0.0533333
        k(   10) = (   0.0666667   0.1924501   0.0000000), wk =   0.1066667
        k(   11) = (   0.0666667   0.2694301   0.0000000), wk =   0.1066667
        k(   12) = (   0.0666667   0.3464102   0.0000000), wk =   0.1066667
        k(   13) = (   0.0666667   0.4233902   0.0000000), wk =   0.1066667
        k(   14) = (   0.0666667   0.5003702   0.0000000), wk =   0.1066667
        k(   15) = (   0.0666667   0.5773503   0.0000000), wk =   0.0533333
        k(   16) = (   0.1333333   0.2309401   0.0000000), wk =   0.0533333
        k(   17) = (   0.1333333   0.3079201   0.0000000), wk =   0.1066667
        k(   18) = (   0.1333333   0.3849002   0.0000000), wk =   0.1066667
        k(   19) = (   0.1333333   0.4618802   0.0000000), wk =   0.1066667
        k(   20) = (   0.1333333   0.5388603   0.0000000), wk =   0.1066667
        k(   21) = (   0.2000000   0.3464102   0.0000000), wk =   0.0533333
        k(   22) = (   0.2000000   0.4233902   0.0000000), wk =   0.1066667
        k(   23) = (   0.2000000   0.5003702   0.0000000), wk =   0.1066667
        k(   24) = (   0.2000000   0.5773503   0.0000000), wk =   0.0533333
        k(   25) = (   0.2666667   0.4618802   0.0000000), wk =   0.0533333
        k(   26) = (   0.2666667   0.5388603   0.0000000), wk =   0.1066667
        k(   27) = (   0.3333333   0.5773503   0.0000000), wk =   0.0177778

     Initial potential from superposition of free atoms

     starting charge    7.98607, renormalised to    8.00000

     negative rho (up, down):  6.983E-05 0.000E+00
     Starting wfcs are random

     Self-consistent Calculation

     iteration #  1     ecut=    50.00 Ry     beta= 0.70
     Davidson diagonalization with overlap
     ethr =  1.00E-02,  avg # of iterations = 14.1

     negative rho (up, down):  8.681E-07 0.000E+00

     total energy              =     -18.83718277 Ry
     estimated scf accuracy    <       2.34008374 Ry

[...]

     iteration # 18     ecut=    50.00 Ry     beta= 0.70
     Davidson diagonalization with overlap
     c_bands:  1 eigenvalues not converged
     ethr =  1.33E-06,  avg # of iterations =  2.9

[...]

     End of self-consistent calculation

          k = 0.0000 0.0000 0.0000 (  1909 PWs)   bands (ev):

   -34.2713 -24.0974  -3.6329  -2.3980  -0.2471   0.2037   1.6089   2.2440

[...]

     the Fermi energy is    -2.5298 ev

!    total energy              =     -19.27682755 Ry
     estimated scf accuracy    <          1.7E-09 Ry
     smearing contrib. (-TS)   =      -0.00007825 Ry
     internal energy E=F+TS    =     -19.27674930 Ry

     The total energy is F=E-TS. E is the sum of the following terms:
     one-electron contribution =    -943.84897706 Ry
     hartree contribution      =     472.97597791 Ry
     xc contribution           =      -9.38444854 Ry
     ewald contribution        =     460.98069839 Ry

     convergence has been achieved in  25 iterations

     Forces acting on atoms (cartesian axes, Ry/au):

     atom    1 type  1   force =     0.00000000    0.00000000    0.00000000
     atom    2 type  1   force =    -0.00000000   -0.00000000    0.00000000

     Total force =     0.000000     Total SCF correction =     0.000000

     Computing stress (Cartesian axis) and pressure

          total   stress  (Ry/bohr**3)                   (kbar)     P=     3058.86
   0.03145885   0.00000000   0.00000000         4627.76        0.00        0.00
   0.00000000   0.03145885   0.00000000            0.00     4627.76        0.00
   0.00000000   0.00000000  -0.00053658            0.00        0.00      -78.93

     BFGS Geometry Optimization
     Energy error            =      0.0E+00
     Gradient error          =      3.4E-26
     Cell gradient error     =      3.1E-02

     number of scf cycles    =   1
     number of bfgs steps    =   0

     enthalpy new            =     -19.2768275501 Ry

     new trust radius        =       0.5000000000 bohr
     new conv_thr            =       0.0000000100 Ry

     new unit-cell volume =    410.75126 a.u.^3 (    60.86706 Ang^3 )
     density =      0.65534 g/cm^3

CELL_PARAMETERS (alat=  3.00000000)
   1.140710314   0.000000000   0.000000000
  -0.570355157   0.987884110   0.000000000
   0.000000000   0.000000000  13.500000000

ATOMIC_POSITIONS (crystal)
C             0.3333333333        0.6666666667        0.5000000000
C             0.6666666667        0.3333333333        0.5000000000

     Writing output data file ./work/LiC300.save/
     NEW-OLD atomic charge density approx. for the potential

     negative rho (up, down):  1.123E-04 0.000E+00
     extrapolated charge    9.84870, renormalised to    8.00000

[...]

          k =-0.0000 0.0675 0.0000 (  1907 PWs)   bands (ev):

[...]

     Energy error            =      2.0E+00
     Gradient error          =      0.0E+00
     Cell gradient error     =      1.3E-02

[...]

     enthalpy old            =     -19.2768275501 Ry
     enthalpy new            =     -21.2700211410 Ry

     CASE: enthalpy_new < enthalpy_old

[...]

     Writing output data file ./work/LiC300.save/
     NEW-OLD atomic charge density approx. for the potential

     negative rho (up, down):  3.045E-05 0.000E+00
     extrapolated charge    8.09391, renormalised to    8.00000

[...]

     Writing output data file ./work/LiC300.save/
     NEW-OLD atomic charge density approx. for the potential
     extrapolated charge    8.00978, renormalised to    8.00000

[...]

     small trust_radius: resetting bfgs history

[...]

     Threshold (ethr) on eigenvalues was too large:
     Diagonalizing with lowered threshold

     Davidson diagonalization with overlap
     ethr =  4.22E-11,  avg # of iterations =  1.6

[...]

     Energy error            =      1.9E-09
     Gradient error          =      1.2E-26
     Cell gradient error     =      1.4E-07

     number of scf cycles    =   9
     number of bfgs steps    =   8

     enthalpy old            =     -22.5051055255 Ry
     enthalpy new            =     -22.5051055274 Ry

     CASE: enthalpy_new < enthalpy_old

     Message from routine bfgs:
     history already reset at previous step: stopping
     small trust_radius: resetting bfgs history

     new trust radius        =       0.0000181710 bohr
     new conv_thr            =            1.0E-10 Ry

     new unit-cell volume =    695.21049 a.u.^3 (   103.01957 Ang^3 )
     density =      0.38719 g/cm^3

[...]

ATOMIC_POSITIONS (crystal)
C             0.3333333333        0.6666666667        0.5000000000
C             0.6666666667        0.3333333333        0.5000000000

     Writing output data file ./work/LiC300.save/
     NEW-OLD atomic charge density approx. for the potential
     extrapolated charge    8.00006, renormalised to    8.00000

[...]

     Threshold (ethr) on eigenvalues was too large:
     Diagonalizing with lowered threshold

     Davidson diagonalization with overlap
     ethr =  1.43E-11,  avg # of iterations =  1.4

[...]

     Message from routine bfgs:
     history already reset at previous step: stopping
     Energy error            =      5.3E-10
     Gradient error          =      0.0E+00
     Cell gradient error     =      7.8E-08

     bfgs converged in  10 scf cycles and   9 bfgs steps
     (criteria: energy <  1.0E-04 Ry, force <  1.0E-08Ry/Bohr, cell <  1.0E-03kbar)

     End of BFGS Geometry Optimization

     Final enthalpy =     -22.5051055280 Ry

     File ./work/LiC300.bfgs deleted, as requested
Begin final coordinates
     new unit-cell volume =    695.21049 a.u.^3 (   103.01957 Ang^3 )
     density =      0.38719 g/cm^3

CELL_PARAMETERS (alat=  3.00000000)
   1.484034770   0.000000000   0.000000000
  -0.742017385   1.285211811   0.000000000
   0.000000000   0.000000000  13.500000000

ATOMIC_POSITIONS (crystal)
C             0.3333333333        0.6666666667        0.5000000000
C             0.6666666667        0.3333333333        0.5000000000
End final coordinates

     Writing output data file ./work/LiC300.save/

     Final scf calculation at the relaxed structure.
     The G-vectors are recalculated for the final unit cell
     Results may differ from those at the preceding step.

     bravais-lattice index     =            4
     lattice parameter (alat)  =       3.0000  a.u.
     unit-cell volume          =     695.2105 (a.u.)^3
     number of atoms/cell      =            2
     number of atomic types    =            1
     number of electrons       =         8.00
     number of Kohn-Sham states=            8
     kinetic-energy cutoff     =      50.0000  Ry
     charge density cutoff     =     200.0000  Ry
     scf convergence threshold =      1.0E-10
     mixing beta               =       0.7000
     number of iterations used =            8  plain     mixing
     press convergence thresh. =      1.0E-03
     Exchange-correlation= PBE
                           (   1   4   3   4   0   0   0)

     celldm(1)=   3.000000  celldm(2)=   0.000000  celldm(3)=  13.500000
     celldm(4)=   0.000000  celldm(5)=   0.000000  celldm(6)=   0.000000

     crystal axes: (cart. coord. in units of alat)
               a(1) = (   1.484035   0.000000   0.000000 )
               a(2) = (  -0.742017   1.285212   0.000000 )
               a(3) = (   0.000000   0.000000  13.500000 )

     reciprocal axes: (cart. coord. in units 2 pi/alat)
               b(1) = (  0.673839  0.389041  0.000000 )
               b(2) = ( -0.000000  0.778082  0.000000 )
               b(3) = (  0.000000  0.000000  0.074074 )

     PseudoPot. # 1 for C  read from file:
     /home/yhkim/qe-6.7/pseudo/ONCV1/1.2/C_ONCV_PBE-1.2.upf
     MD5 check sum: 1a5f83a7b1f58d24996abe00ed223ac6
     Pseudo is Norm-conserving, Zval =  4.0
     Generated using ONCVPSP code by D. R. Hamann
     Using radial grid of  602 points,  4 beta functions with:
                l(1) =   0
                l(2) =   0
                l(3) =   1
                l(4) =   1

     atomic species   valence    mass     pseudopotential
        C              4.00    12.01070     C ( 1.00)

     24 Sym. Ops., with inversion, found

   Cartesian axes

     site n.     atom                  positions (alat units)
         1           C   tau(   1) = (  -0.0000000   0.8568079   6.7500000  )
         2           C   tau(   2) = (   0.7420174   0.4284039   6.7500000  )

     number of k points=    27  Methfessel-Paxton smearing, width (Ry)=  0.0100
                       cart. coord. in units 2pi/alat
        k(    1) = (   0.0000000   0.0000000   0.0000000), wk =   0.0088889
        k(    2) = (  -0.0000000   0.0518721   0.0000000), wk =   0.0533333
        k(    3) = (  -0.0000000   0.1037442   0.0000000), wk =   0.0533333
        k(    4) = (  -0.0000000   0.1556164   0.0000000), wk =   0.0533333
        k(    5) = (  -0.0000000   0.2074885   0.0000000), wk =   0.0533333
        k(    6) = (  -0.0000000   0.2593606   0.0000000), wk =   0.0533333
        k(    7) = (  -0.0000000   0.3112327   0.0000000), wk =   0.0533333
        k(    8) = (  -0.0000000   0.3631049   0.0000000), wk =   0.0533333
        k(    9) = (   0.0449226   0.0778082   0.0000000), wk =   0.0533333
        k(   10) = (   0.0449226   0.1296803   0.0000000), wk =   0.1066667
        k(   11) = (   0.0449226   0.1815524   0.0000000), wk =   0.1066667
        k(   12) = (   0.0449226   0.2334246   0.0000000), wk =   0.1066667
        k(   13) = (   0.0449226   0.2852967   0.0000000), wk =   0.1066667
        k(   14) = (   0.0449226   0.3371688   0.0000000), wk =   0.1066667
        k(   15) = (   0.0449226   0.3890409   0.0000000), wk =   0.0533333
        k(   16) = (   0.0898452   0.1556164   0.0000000), wk =   0.0533333
        k(   17) = (   0.0898452   0.2074885   0.0000000), wk =   0.1066667
        k(   18) = (   0.0898452   0.2593606   0.0000000), wk =   0.1066667
        k(   19) = (   0.0898452   0.3112327   0.0000000), wk =   0.1066667
        k(   20) = (   0.0898452   0.3631049   0.0000000), wk =   0.1066667
        k(   21) = (   0.1347677   0.2334246   0.0000000), wk =   0.0533333
        k(   22) = (   0.1347677   0.2852967   0.0000000), wk =   0.1066667
        k(   23) = (   0.1347677   0.3371688   0.0000000), wk =   0.1066667
        k(   24) = (   0.1347677   0.3890409   0.0000000), wk =   0.0533333
        k(   25) = (   0.1796903   0.3112327   0.0000000), wk =   0.0533333
        k(   26) = (   0.1796903   0.3631049   0.0000000), wk =   0.1066667
        k(   27) = (   0.2246129   0.3890409   0.0000000), wk =   0.0177778

     Initial potential from superposition of free atoms

     starting charge    7.98607, renormalised to    8.00000

     negative rho (up, down):  1.115E-04 0.000E+00
     Starting wfcs are random

     Self-consistent Calculation

[...]

     negative rho (up, down):  2.790E-06 0.000E+00

[...]

     iteration #  4     ecut=    50.00 Ry     beta= 0.70
     Davidson diagonalization with overlap
     c_bands:  1 eigenvalues not converged
     ethr =  2.32E-06,  avg # of iterations =  6.0

[...]

     total energy              =     -22.76783567 Ry
     estimated scf accuracy    <          7.6E-10 Ry

     iteration #  7     ecut=    50.00 Ry     beta= 0.70
     Davidson diagonalization with overlap
     ethr =  9.53E-12,  avg # of iterations =  3.3

     End of self-consistent calculation

[...]

          k =-0.0000 0.3631 0.0000 (  4172 PWs)   bands (ev):

[...]

          k = 0.2246 0.3890 0.0000 (  4197 PWs)   bands (ev):

   -16.8585 -16.8585 -15.4692  -3.8244  -3.8244   7.0126   9.9060   9.9061

     the Fermi energy is    -3.8244 ev

!    total energy              =     -22.76783567 Ry
     estimated scf accuracy    <          9.8E-12 Ry
     smearing contrib. (-TS)   =      -0.00005015 Ry
     internal energy E=F+TS    =     -22.76778552 Ry

     The total energy is F=E-TS. E is the sum of the following terms:
     one-electron contribution =    -424.18723058 Ry
     hartree contribution      =     212.81219167 Ry
     xc contribution           =      -7.21189383 Ry
     ewald contribution        =     195.81914722 Ry

     convergence has been achieved in   7 iterations

     Forces acting on atoms (cartesian axes, Ry/au):

     atom    1 type  1   force =     0.00000000    0.00000000    0.00000000
     atom    2 type  1   force =    -0.00000000   -0.00000000    0.00000000

     Total force =     0.000000     Total SCF correction =     0.000000

     Computing stress (Cartesian axis) and pressure

          total   stress  (Ry/bohr**3)                   (kbar)     P=       52.01
   0.00059094  -0.00000000  -0.00000000           86.93       -0.00       -0.00
  -0.00000000   0.00059094   0.00000000           -0.00       86.93        0.00
   0.00000000  -0.00000000  -0.00012118            0.00       -0.00      -17.83

     Writing output data file ./work/LiC300.save/

     General routines

     Parallel routines

   This run was terminated on:  15:39:14  19Jan2024

   JOB DONE.