     Program PWSCF v.6.7MaX starts on 19Jan2024 at 15:50:11

     R & G space division:  proc/nbgrp/npool/nimage =      32
     Waiting for input...
     Reading input from standard input

     Current dimensions of program PWSCF are:
     Max number of different atomic species (ntypx) = 10
     Max number of k-points (npk) =  40000
     Max angular momentum in pseudopotentials (lmaxx) =  3
     Message from routine read_pp_mesh:
     mesh size missing, using the one in header

     Subspace diagonalization in iterative solution of the eigenvalue problem:
     a serial algorithm will be used

     bravais-lattice index     =            4
     lattice parameter (alat)  =       5.9000  a.u.
     unit-cell volume          =    1220.9269 (a.u.)^3
     number of atoms/cell      =            2
     number of atomic types    =            1
     number of electrons       =         8.00
     number of Kohn-Sham states=            8
     kinetic-energy cutoff     =      50.0000  Ry
     charge density cutoff     =     200.0000  Ry
     scf convergence threshold =      1.0E-08
     mixing beta               =       0.7000
     number of iterations used =            8  plain     mixing
     energy convergence thresh.=      1.0E-04
     force convergence thresh. =      1.0E-08
     press convergence thresh. =      1.0E-03
     Exchange-correlation= PBE
                           (   1   4   3   4   0   0   0)
     nstep                     =           50

     celldm(1)=   5.900000  celldm(2)=   0.000000  celldm(3)=   6.864407
     celldm(4)=   0.000000  celldm(5)=   0.000000  celldm(6)=   0.000000

     crystal axes: (cart. coord. in units of alat)
               a(1) = (   1.000000   0.000000   0.000000 )
               a(2) = (  -0.500000   0.866025   0.000000 )
               a(3) = (   0.000000   0.000000   6.864407 )

     reciprocal axes: (cart. coord. in units 2 pi/alat)
               b(1) = (  1.000000  0.577350  0.000000 )
               b(2) = (  0.000000  1.154701  0.000000 )
               b(3) = (  0.000000  0.000000  0.145679 )

     PseudoPot. # 1 for C  read from file:
     /home/yhkim/qe-6.7/pseudo/ONCV1/1.2/C_ONCV_PBE-1.2.upf
     MD5 check sum: 1a5f83a7b1f58d24996abe00ed223ac6
     Pseudo is Norm-conserving, Zval =  4.0
     Generated using ONCVPSP code by D. R. Hamann
     Using radial grid of  602 points,  4 beta functions with:
                l(1) =   0
                l(2) =   0
                l(3) =   1
                l(4) =   1

     atomic species   valence    mass     pseudopotential
        C              4.00    12.01070     C ( 1.00)

     24 Sym. Ops., with inversion, found

   Cartesian axes

     site n.     atom                  positions (alat units)
         1           C   tau(   1) = (  -0.0000000   0.5773503   3.4322034  )
         2           C   tau(   2) = (   0.5000000   0.2886751   3.4322034  )

     number of k points=    27  Methfessel-Paxton smearing, width (Ry)=  0.0100
                       cart. coord. in units 2pi/alat
        k(    1) = (   0.0000000   0.0000000   0.0000000), wk =   0.0088889
        k(    2) = (   0.0000000   0.0769800   0.0000000), wk =   0.0533333
        k(    3) = (   0.0000000   0.1539601   0.0000000), wk =   0.0533333
        k(    4) = (   0.0000000   0.2309401   0.0000000), wk =   0.0533333
        k(    5) = (   0.0000000   0.3079201   0.0000000), wk =   0.0533333
        k(    6) = (   0.0000000   0.3849002   0.0000000), wk =   0.0533333
        k(    7) = (   0.0000000   0.4618802   0.0000000), wk =   0.0533333
        k(    8) = (   0.0000000   0.5388603   0.0000000), wk =   0.0533333
        k(    9) = (   0.0666667   0.1154701   0.0000000), wk =   0.0533333
        k(   10) = (   0.0666667   0.1924501   0.0000000), wk =   0.1066667
        k(   11) = (   0.0666667   0.2694301   0.0000000), wk =   0.1066667
        k(   12) = (   0.0666667   0.3464102   0.0000000), wk =   0.1066667
        k(   13) = (   0.0666667   0.4233902   0.0000000), wk =   0.1066667
        k(   14) = (   0.0666667   0.5003702   0.0000000), wk =   0.1066667
        k(   15) = (   0.0666667   0.5773503   0.0000000), wk =   0.0533333
        k(   16) = (   0.1333333   0.2309401   0.0000000), wk =   0.0533333
        k(   17) = (   0.1333333   0.3079201   0.0000000), wk =   0.1066667
        k(   18) = (   0.1333333   0.3849002   0.0000000), wk =   0.1066667
        k(   19) = (   0.1333333   0.4618802   0.0000000), wk =   0.1066667
        k(   20) = (   0.1333333   0.5388603   0.0000000), wk =   0.1066667
        k(   21) = (   0.2000000   0.3464102   0.0000000), wk =   0.0533333
        k(   22) = (   0.2000000   0.4233902   0.0000000), wk =   0.1066667
        k(   23) = (   0.2000000   0.5003702   0.0000000), wk =   0.1066667
        k(   24) = (   0.2000000   0.5773503   0.0000000), wk =   0.0533333
        k(   25) = (   0.2666667   0.4618802   0.0000000), wk =   0.0533333
        k(   26) = (   0.2666667   0.5388603   0.0000000), wk =   0.1066667
        k(   27) = (   0.3333333   0.5773503   0.0000000), wk =   0.0177778

     Initial potential from superposition of free atoms

     starting charge    7.98607, renormalised to    8.00000

     negative rho (up, down):  1.522E-04 0.000E+00
     Starting wfcs are random

     Self-consistent Calculation

     iteration #  1     ecut=    50.00 Ry     beta= 0.70
     Davidson diagonalization with overlap
     ethr =  1.00E-02,  avg # of iterations = 12.9

     Threshold (ethr) on eigenvalues was too large:
     Diagonalizing with lowered threshold

     Davidson diagonalization with overlap
     ethr =  2.22E-04,  avg # of iterations =  7.9

     negative rho (up, down):  2.253E-05 0.000E+00

     total energy              =     -22.42095832 Ry
     estimated scf accuracy    <       0.01767999 Ry

[...]

     iteration #  3     ecut=    50.00 Ry     beta= 0.70
     Davidson diagonalization with overlap
     c_bands:  1 eigenvalues not converged
     c_bands:  1 eigenvalues not converged
     c_bands:  1 eigenvalues not converged
     ethr =  1.71E-05,  avg # of iterations =  7.6

[...]

     End of self-consistent calculation

          k = 0.0000 0.0000 0.0000 (  7339 PWs)   bands (ev):

   -20.3123  -9.5680  -8.4390  -8.4390  -5.2741  -1.0354  -1.0343  -0.8212

[...]

     the Fermi energy is    -5.6857 ev

!    total energy              =     -22.42172895 Ry
     estimated scf accuracy    <          2.6E-10 Ry
     smearing contrib. (-TS)   =      -0.00005013 Ry
     internal energy E=F+TS    =     -22.42167882 Ry

     The total energy is F=E-TS. E is the sum of the following terms:
     one-electron contribution =    -240.84683251 Ry
     hartree contribution      =     120.76130320 Ry
     xc contribution           =      -6.17707665 Ry
     ewald contribution        =     103.84092714 Ry

     convergence has been achieved in   6 iterations

     Forces acting on atoms (cartesian axes, Ry/au):

     atom    1 type  1   force =     0.00000000    0.00000000    0.00000000
     atom    2 type  1   force =     0.00000000    0.00000000    0.00000000

     Total force =     0.000000     Total SCF correction =     0.000000

     Computing stress (Cartesian axis) and pressure

          total   stress  (Ry/bohr**3)                   (kbar)     P=     -104.08
  -0.00103143  -0.00000000  -0.00000000         -151.73       -0.00       -0.00
  -0.00000000  -0.00103143   0.00000000           -0.00     -151.73        0.00
   0.00000000  -0.00000000  -0.00005966            0.00       -0.00       -8.78

     BFGS Geometry Optimization
     Energy error            =      0.0E+00
     Gradient error          =      0.0E+00
     Cell gradient error     =      1.0E-03

     number of scf cycles    =   1
     number of bfgs steps    =   0

     enthalpy new            =     -22.4217289461 Ry

     new trust radius        =       0.1801992718 bohr
     new conv_thr            =       0.0000000100 Ry

     new unit-cell volume =   1158.77393 a.u.^3 (   171.71258 Ang^3 )
     density =      0.23230 g/cm^3

CELL_PARAMETERS (alat=  5.90000000)
   0.974214343  -0.000000000   0.000000000
  -0.487107171   0.843694370   0.000000000
   0.000000000   0.000000000   6.864406780

ATOMIC_POSITIONS (crystal)
C             0.3333333333        0.6666666667        0.5000000000
C             0.6666666667        0.3333333333        0.5000000000

     Writing output data file ./work/LiC590.save/
     NEW-OLD atomic charge density approx. for the potential

     negative rho (up, down):  1.130E-05 0.000E+00
     extrapolated charge    7.57165, renormalised to    8.00000

[...]

     Energy error            =      6.5E-02
     Gradient error          =      0.0E+00
     Cell gradient error     =      1.1E-03

[...]

     enthalpy old            =     -22.4217289461 Ry
     enthalpy new            =     -22.4866008554 Ry

     CASE: enthalpy_new < enthalpy_old

     WARNING: bfgs curvature condition failed, Theta= 0.804
     new trust radius        =       0.1982191989 bohr
     new conv_thr            =            1.0E-10 Ry

[...]

          k =-0.0000 0.0852 0.0000 (  7359 PWs)   bands (ev):

[...]

          k =-0.0000 0.5965 0.0000 (  7262 PWs)   bands (ev):

[...]

     CASE: enthalpy_new > enthalpy_old

[...]

     Writing output data file ./work/LiC590.save/
     NEW-OLD atomic charge density approx. for the potential

     negative rho (up, down):  5.438E-07 0.000E+00
     extrapolated charge    8.01996, renormalised to    8.00000

[...]

     number of scf cycles    =   9
     number of bfgs steps    =   7

     enthalpy old            =     -22.8045375491 Ry
     enthalpy new            =     -22.8045527537 Ry

     CASE: enthalpy_new < enthalpy_old

     new trust radius        =       0.0001160160 bohr
     new conv_thr            =            1.0E-10 Ry

     new unit-cell volume =    759.23462 a.u.^3 (   112.50696 Ang^3 )
     density =      0.35454 g/cm^3

[...]

ATOMIC_POSITIONS (crystal)
C             0.3333333333        0.6666666667        0.5000000000
C             0.6666666667        0.3333333333        0.5000000000

     Writing output data file ./work/LiC590.save/
     NEW-OLD atomic charge density approx. for the potential
     extrapolated charge    7.99966, renormalised to    8.00000

[...]

     Threshold (ethr) on eigenvalues was too large:
     Diagonalizing with lowered threshold

     Davidson diagonalization with overlap
     ethr =  3.85E-10,  avg # of iterations =  1.8

[...]

     Energy error            =      4.5E-09
     Gradient error          =      1.1E-26
     Cell gradient error     =      1.9E-09

     bfgs converged in  10 scf cycles and   8 bfgs steps
     (criteria: energy <  1.0E-04 Ry, force <  1.0E-08Ry/Bohr, cell <  1.0E-03kbar)

     End of BFGS Geometry Optimization

     Final enthalpy =     -22.8045527581 Ry

     File ./work/LiC590.bfgs deleted, as requested
Begin final coordinates
     new unit-cell volume =    759.23462 a.u.^3 (   112.50696 Ang^3 )
     density =      0.35454 g/cm^3

CELL_PARAMETERS (alat=  5.90000000)
   0.788575288  -0.000000000   0.000000000
  -0.394287644   0.682926233   0.000000000
   0.000000000   0.000000000   6.864406780

ATOMIC_POSITIONS (crystal)
C             0.3333333333        0.6666666667        0.5000000000
C             0.6666666667        0.3333333333        0.5000000000
End final coordinates

     Writing output data file ./work/LiC590.save/

     Final scf calculation at the relaxed structure.
     The G-vectors are recalculated for the final unit cell
     Results may differ from those at the preceding step.

     bravais-lattice index     =            4
     lattice parameter (alat)  =       5.9000  a.u.
     unit-cell volume          =     759.2346 (a.u.)^3
     number of atoms/cell      =            2
     number of atomic types    =            1
     number of electrons       =         8.00
     number of Kohn-Sham states=            8
     kinetic-energy cutoff     =      50.0000  Ry
     charge density cutoff     =     200.0000  Ry
     scf convergence threshold =      1.0E-10
     mixing beta               =       0.7000
     number of iterations used =            8  plain     mixing
     press convergence thresh. =      1.0E-03
     Exchange-correlation= PBE
                           (   1   4   3   4   0   0   0)

     celldm(1)=   5.900000  celldm(2)=   0.000000  celldm(3)=   6.864407
     celldm(4)=   0.000000  celldm(5)=   0.000000  celldm(6)=   0.000000

     crystal axes: (cart. coord. in units of alat)
               a(1) = (   0.788575  -0.000000   0.000000 )
               a(2) = (  -0.394288   0.682926   0.000000 )
               a(3) = (   0.000000   0.000000   6.864407 )

     reciprocal axes: (cart. coord. in units 2 pi/alat)
               b(1) = (  1.268110  0.732143  0.000000 )
               b(2) = (  0.000000  1.464287  0.000000 )
               b(3) = (  0.000000  0.000000  0.145679 )

     PseudoPot. # 1 for C  read from file:
     /home/yhkim/qe-6.7/pseudo/ONCV1/1.2/C_ONCV_PBE-1.2.upf
     MD5 check sum: 1a5f83a7b1f58d24996abe00ed223ac6
     Pseudo is Norm-conserving, Zval =  4.0
     Generated using ONCVPSP code by D. R. Hamann
     Using radial grid of  602 points,  4 beta functions with:
                l(1) =   0
                l(2) =   0
                l(3) =   1
                l(4) =   1

     atomic species   valence    mass     pseudopotential
        C              4.00    12.01070     C ( 1.00)

     24 Sym. Ops., with inversion, found

   Cartesian axes

     site n.     atom                  positions (alat units)
         1           C   tau(   1) = (  -0.0000000   0.4552842   3.4322034  )
         2           C   tau(   2) = (   0.3942876   0.2276421   3.4322034  )

     number of k points=    27  Methfessel-Paxton smearing, width (Ry)=  0.0100
                       cart. coord. in units 2pi/alat
        k(    1) = (   0.0000000   0.0000000   0.0000000), wk =   0.0088889
        k(    2) = (   0.0000000   0.0976191   0.0000000), wk =   0.0533333
        k(    3) = (   0.0000000   0.1952383   0.0000000), wk =   0.0533333
        k(    4) = (   0.0000000   0.2928574   0.0000000), wk =   0.0533333
        k(    5) = (   0.0000000   0.3904765   0.0000000), wk =   0.0533333
        k(    6) = (   0.0000000   0.4880957   0.0000000), wk =   0.0533333
        k(    7) = (   0.0000000   0.5857148   0.0000000), wk =   0.0533333
        k(    8) = (   0.0000000   0.6833339   0.0000000), wk =   0.0533333
        k(    9) = (   0.0845406   0.1464287   0.0000000), wk =   0.0533333
        k(   10) = (   0.0845406   0.2440478   0.0000000), wk =   0.1066667
        k(   11) = (   0.0845406   0.3416670   0.0000000), wk =   0.1066667
        k(   12) = (   0.0845406   0.4392861   0.0000000), wk =   0.1066667
        k(   13) = (   0.0845406   0.5369052   0.0000000), wk =   0.1066667
        k(   14) = (   0.0845406   0.6345244   0.0000000), wk =   0.1066667
        k(   15) = (   0.0845406   0.7321435   0.0000000), wk =   0.0533333
        k(   16) = (   0.1690813   0.2928574   0.0000000), wk =   0.0533333
        k(   17) = (   0.1690813   0.3904765   0.0000000), wk =   0.1066667
        k(   18) = (   0.1690813   0.4880957   0.0000000), wk =   0.1066667
        k(   19) = (   0.1690813   0.5857148   0.0000000), wk =   0.1066667
        k(   20) = (   0.1690813   0.6833339   0.0000000), wk =   0.1066667
        k(   21) = (   0.2536219   0.4392861   0.0000000), wk =   0.0533333
        k(   22) = (   0.2536219   0.5369052   0.0000000), wk =   0.1066667
        k(   23) = (   0.2536219   0.6345244   0.0000000), wk =   0.1066667
        k(   24) = (   0.2536219   0.7321435   0.0000000), wk =   0.0533333
        k(   25) = (   0.3381626   0.5857148   0.0000000), wk =   0.0533333
        k(   26) = (   0.3381626   0.6833339   0.0000000), wk =   0.1066667
        k(   27) = (   0.4227032   0.7321435   0.0000000), wk =   0.0177778

     Initial potential from superposition of free atoms

     starting charge    7.98607, renormalised to    8.00000

     negative rho (up, down):  1.133E-04 0.000E+00
     Starting wfcs are random

     Self-consistent Calculation

[...]

     negative rho (up, down):  2.904E-06 0.000E+00

[...]

     iteration #  4     ecut=    50.00 Ry     beta= 0.70
     Davidson diagonalization with overlap
     c_bands:  1 eigenvalues not converged
     ethr =  2.16E-06,  avg # of iterations =  5.8

[...]

     total energy              =     -22.79098467 Ry
     estimated scf accuracy    <          1.0E-09 Ry

     iteration #  7     ecut=    50.00 Ry     beta= 0.70
     Davidson diagonalization with overlap
     ethr =  1.28E-11,  avg # of iterations =  3.0

     End of self-consistent calculation

[...]

          k = 0.4227 0.7321 0.0000 (  4521 PWs)   bands (ev):

   -16.8765 -16.8765 -14.8608  -4.2293  -4.2293   6.4009   8.6844   8.6844

     the Fermi energy is    -4.2293 ev

!    total energy              =     -22.79098467 Ry
     estimated scf accuracy    <          1.3E-11 Ry
     smearing contrib. (-TS)   =      -0.00005015 Ry
     internal energy E=F+TS    =     -22.79093452 Ry

     The total energy is F=E-TS. E is the sum of the following terms:
     one-electron contribution =    -387.99274892 Ry
     hartree contribution      =     194.61795586 Ry
     xc contribution           =      -7.01653783 Ry
     ewald contribution        =     177.60039638 Ry

     convergence has been achieved in   7 iterations

     Forces acting on atoms (cartesian axes, Ry/au):

     atom    1 type  1   force =     0.00000000    0.00000000    0.00000000
     atom    2 type  1   force =    -0.00000000   -0.00000000    0.00000000

     Total force =     0.000000     Total SCF correction =     0.000000

     Computing stress (Cartesian axis) and pressure

          total   stress  (Ry/bohr**3)                   (kbar)     P=      -13.68
  -0.00008549  -0.00000000   0.00000000          -12.58       -0.00        0.00
  -0.00000000  -0.00008549   0.00000000           -0.00      -12.58        0.00
   0.00000000   0.00000000  -0.00010803            0.00        0.00      -15.89

     Writing output data file ./work/LiC590.save/

     General routines

     Parallel routines

   This run was terminated on:  15:50:44  19Jan2024

   JOB DONE.