     Program PWSCF v.6.7MaX starts on 19Jan2024 at 14: 5:36

     R & G space division:  proc/nbgrp/npool/nimage =      32
     Waiting for input...
     Reading input from standard input

     Current dimensions of program PWSCF are:
     Max number of different atomic species (ntypx) = 10
     Max number of k-points (npk) =  40000
     Max angular momentum in pseudopotentials (lmaxx) =  3
     Message from routine read_pp_mesh:
     mesh size missing, using the one in header

     Subspace diagonalization in iterative solution of the eigenvalue problem:
     a serial algorithm will be used

     bravais-lattice index     =            4
     lattice parameter (alat)  =       4.2200  a.u.
     unit-cell volume          =     624.6123 (a.u.)^3
     number of atoms/cell      =            2
     number of atomic types    =            1
     number of electrons       =         8.00
     number of Kohn-Sham states=            8
     kinetic-energy cutoff     =      50.0000  Ry
     charge density cutoff     =     200.0000  Ry
     scf convergence threshold =      1.0E-08
     mixing beta               =       0.7000
     number of iterations used =            8  plain     mixing
     energy convergence thresh.=      1.0E-04
     force convergence thresh. =      1.0E-08
     press convergence thresh. =      1.0E-03
     Exchange-correlation= PBE
                           (   1   4   3   4   0   0   0)
     nstep                     =           50

     celldm(1)=   4.220000  celldm(2)=   0.000000  celldm(3)=   9.597156
     celldm(4)=   0.000000  celldm(5)=   0.000000  celldm(6)=   0.000000

     crystal axes: (cart. coord. in units of alat)
               a(1) = (   1.000000   0.000000   0.000000 )
               a(2) = (  -0.500000   0.866025   0.000000 )
               a(3) = (   0.000000   0.000000   9.597156 )

     reciprocal axes: (cart. coord. in units 2 pi/alat)
               b(1) = (  1.000000  0.577350  0.000000 )
               b(2) = (  0.000000  1.154701  0.000000 )
               b(3) = (  0.000000  0.000000  0.104198 )

     PseudoPot. # 1 for C  read from file:
     /home/yhkim/qe-6.7/pseudo/ONCV1/1.2/C_ONCV_PBE-1.2.upf
     MD5 check sum: 1a5f83a7b1f58d24996abe00ed223ac6
     Pseudo is Norm-conserving, Zval =  4.0
     Generated using ONCVPSP code by D. R. Hamann
     Using radial grid of  602 points,  4 beta functions with:
                l(1) =   0
                l(2) =   0
                l(3) =   1
                l(4) =   1

     atomic species   valence    mass     pseudopotential
        C              4.00    12.01070     C ( 1.00)

     24 Sym. Ops., with inversion, found

   Cartesian axes

     site n.     atom                  positions (alat units)
         1           C   tau(   1) = (  -0.0000000   0.5773503   4.7985782  )
         2           C   tau(   2) = (   0.5000000   0.2886751   4.7985782  )

     number of k points=    27  Methfessel-Paxton smearing, width (Ry)=  0.0100
                       cart. coord. in units 2pi/alat
        k(    1) = (   0.0000000   0.0000000   0.0000000), wk =   0.0088889
        k(    2) = (   0.0000000   0.0769800   0.0000000), wk =   0.0533333
        k(    3) = (   0.0000000   0.1539601   0.0000000), wk =   0.0533333
        k(    4) = (   0.0000000   0.2309401   0.0000000), wk =   0.0533333
        k(    5) = (   0.0000000   0.3079201   0.0000000), wk =   0.0533333
        k(    6) = (   0.0000000   0.3849002   0.0000000), wk =   0.0533333
        k(    7) = (   0.0000000   0.4618802   0.0000000), wk =   0.0533333
        k(    8) = (   0.0000000   0.5388603   0.0000000), wk =   0.0533333
        k(    9) = (   0.0666667   0.1154701   0.0000000), wk =   0.0533333
        k(   10) = (   0.0666667   0.1924501   0.0000000), wk =   0.1066667
        k(   11) = (   0.0666667   0.2694301   0.0000000), wk =   0.1066667
        k(   12) = (   0.0666667   0.3464102   0.0000000), wk =   0.1066667
        k(   13) = (   0.0666667   0.4233902   0.0000000), wk =   0.1066667
        k(   14) = (   0.0666667   0.5003702   0.0000000), wk =   0.1066667
        k(   15) = (   0.0666667   0.5773503   0.0000000), wk =   0.0533333
        k(   16) = (   0.1333333   0.2309401   0.0000000), wk =   0.0533333
        k(   17) = (   0.1333333   0.3079201   0.0000000), wk =   0.1066667
        k(   18) = (   0.1333333   0.3849002   0.0000000), wk =   0.1066667
        k(   19) = (   0.1333333   0.4618802   0.0000000), wk =   0.1066667
        k(   20) = (   0.1333333   0.5388603   0.0000000), wk =   0.1066667
        k(   21) = (   0.2000000   0.3464102   0.0000000), wk =   0.0533333
        k(   22) = (   0.2000000   0.4233902   0.0000000), wk =   0.1066667
        k(   23) = (   0.2000000   0.5003702   0.0000000), wk =   0.1066667
        k(   24) = (   0.2000000   0.5773503   0.0000000), wk =   0.0533333
        k(   25) = (   0.2666667   0.4618802   0.0000000), wk =   0.0533333
        k(   26) = (   0.2666667   0.5388603   0.0000000), wk =   0.1066667
        k(   27) = (   0.3333333   0.5773503   0.0000000), wk =   0.0177778

     Initial potential from superposition of free atoms

     starting charge    7.98607, renormalised to    8.00000

     negative rho (up, down):  1.068E-04 0.000E+00
     Starting wfcs are random

     Self-consistent Calculation

     iteration #  1     ecut=    50.00 Ry     beta= 0.70
     Davidson diagonalization with overlap
     ethr =  1.00E-02,  avg # of iterations = 11.9

     negative rho (up, down):  2.333E-07 0.000E+00

     total energy              =     -22.61832775 Ry
     estimated scf accuracy    <       0.36864081 Ry

[...]

     iteration #  4     ecut=    50.00 Ry     beta= 0.70
     Davidson diagonalization with overlap
     c_bands:  1 eigenvalues not converged
     ethr =  2.12E-06,  avg # of iterations =  5.5

[...]

     End of self-consistent calculation

          k = 0.0000 0.0000 0.0000 (  3739 PWs)   bands (ev):

   -25.3354 -13.1326  -6.1395  -1.0318  -0.2106   0.5604   0.9157   2.2393

[...]

     the Fermi energy is    -3.2410 ev

!    total energy              =     -22.67424451 Ry
     estimated scf accuracy    <          3.8E-09 Ry
     smearing contrib. (-TS)   =      -0.00003668 Ry
     internal energy E=F+TS    =     -22.67420783 Ry

     The total energy is F=E-TS. E is the sum of the following terms:
     one-electron contribution =    -472.83200021 Ry
     hartree contribution      =     237.26880773 Ry
     xc contribution           =      -7.46354604 Ry
     ewald contribution        =     220.35253069 Ry

     convergence has been achieved in   6 iterations

     Forces acting on atoms (cartesian axes, Ry/au):

     atom    1 type  1   force =     0.00000000    0.00000000    0.00000000
     atom    2 type  1   force =     0.00000000    0.00000000    0.00000000

     Total force =     0.000000     Total SCF correction =     0.000000

     Computing stress (Cartesian axis) and pressure

          total   stress  (Ry/bohr**3)                   (kbar)     P=      168.85
   0.00179110   0.00000000  -0.00000000          263.48        0.00       -0.00
   0.00000000   0.00179110   0.00000000            0.00      263.48        0.00
   0.00000000  -0.00000000  -0.00013874            0.00       -0.00      -20.41

     BFGS Geometry Optimization
     Energy error            =      0.0E+00
     Gradient error          =      0.0E+00
     Cell gradient error     =      1.8E-03

     number of scf cycles    =   1
     number of bfgs steps    =   0

     enthalpy new            =     -22.6742445096 Ry

     new trust radius        =       0.2238176577 bohr
     new conv_thr            =       0.0000000100 Ry

     new unit-cell volume =    681.80175 a.u.^3 (   101.03260 Ang^3 )
     density =      0.39481 g/cm^3

CELL_PARAMETERS (alat=  4.22000000)
   1.044777421  -0.000000000   0.000000000
  -0.522388711   0.904803788   0.000000000
   0.000000000   0.000000000   9.597156398

ATOMIC_POSITIONS (crystal)
C             0.3333333333        0.6666666667        0.5000000000
C             0.6666666667        0.3333333333        0.5000000000

     Writing output data file ./work/LiC422.save/
     NEW-OLD atomic charge density approx. for the potential

     negative rho (up, down):  1.260E-04 0.000E+00
     extrapolated charge    8.66987, renormalised to    8.00000

[...]

     Energy error            =      7.2E-02
     Gradient error          =      1.6E-26
     Cell gradient error     =      7.2E-04

[...]

     enthalpy old            =     -22.6742445096 Ry
     enthalpy new            =     -22.7458676905 Ry

     CASE: enthalpy_new < enthalpy_old

[...]

          k =-0.0000 0.0715 0.0000 (  3757 PWs)   bands (ev):

[...]

     Writing output data file ./work/LiC422.save/
     NEW-OLD atomic charge density approx. for the potential

     negative rho (up, down):  7.088E-08 0.000E+00
     extrapolated charge    8.01771, renormalised to    8.00000

[...]

     number of scf cycles    =   5
     number of bfgs steps    =   4

     enthalpy old            =     -22.7646421743 Ry
     enthalpy new            =     -22.7646572384 Ry

     CASE: enthalpy_new < enthalpy_old

     new trust radius        =       0.0001929600 bohr
     new conv_thr            =            1.0E-10 Ry

     new unit-cell volume =    737.77377 a.u.^3 (   109.32679 Ang^3 )
     density =      0.36486 g/cm^3

[...]

ATOMIC_POSITIONS (crystal)
C             0.3333333333        0.6666666667        0.5000000000
C             0.6666666667        0.3333333333        0.5000000000

     Writing output data file ./work/LiC422.save/
     NEW-OLD atomic charge density approx. for the potential
     extrapolated charge    8.00057, renormalised to    8.00000

[...]

     Threshold (ethr) on eigenvalues was too large:
     Diagonalizing with lowered threshold

     Davidson diagonalization with overlap
     ethr =  1.14E-09,  avg # of iterations =  1.4

[...]

     Energy error            =      1.5E-08
     Gradient error          =      0.0E+00
     Cell gradient error     =      3.1E-09

     bfgs converged in   6 scf cycles and   5 bfgs steps
     (criteria: energy <  1.0E-04 Ry, force <  1.0E-08Ry/Bohr, cell <  1.0E-03kbar)

     End of BFGS Geometry Optimization

     Final enthalpy =     -22.7646572531 Ry

     File ./work/LiC422.bfgs deleted, as requested
Begin final coordinates
     new unit-cell volume =    737.77377 a.u.^3 (   109.32679 Ang^3 )
     density =      0.36486 g/cm^3

CELL_PARAMETERS (alat=  4.22000000)
   1.086816759   0.000000000   0.000000000
  -0.543408379   0.941210922   0.000000000
   0.000000000   0.000000000   9.597156398

ATOMIC_POSITIONS (crystal)
C             0.3333333333        0.6666666667        0.5000000000
C             0.6666666667        0.3333333333        0.5000000000
End final coordinates

     Writing output data file ./work/LiC422.save/

     Final scf calculation at the relaxed structure.
     The G-vectors are recalculated for the final unit cell
     Results may differ from those at the preceding step.

     bravais-lattice index     =            4
     lattice parameter (alat)  =       4.2200  a.u.
     unit-cell volume          =     737.7738 (a.u.)^3
     number of atoms/cell      =            2
     number of atomic types    =            1
     number of electrons       =         8.00
     number of Kohn-Sham states=            8
     kinetic-energy cutoff     =      50.0000  Ry
     charge density cutoff     =     200.0000  Ry
     scf convergence threshold =      1.0E-10
     mixing beta               =       0.7000
     number of iterations used =            8  plain     mixing
     press convergence thresh. =      1.0E-03
     Exchange-correlation= PBE
                           (   1   4   3   4   0   0   0)

     celldm(1)=   4.220000  celldm(2)=   0.000000  celldm(3)=   9.597156
     celldm(4)=   0.000000  celldm(5)=   0.000000  celldm(6)=   0.000000

     crystal axes: (cart. coord. in units of alat)
               a(1) = (   1.086817   0.000000   0.000000 )
               a(2) = (  -0.543408   0.941211   0.000000 )
               a(3) = (   0.000000   0.000000   9.597156 )

     reciprocal axes: (cart. coord. in units 2 pi/alat)
               b(1) = (  0.920118  0.531231  0.000000 )
               b(2) = ( -0.000000  1.062461  0.000000 )
               b(3) = (  0.000000  0.000000  0.104198 )

     PseudoPot. # 1 for C  read from file:
     /home/yhkim/qe-6.7/pseudo/ONCV1/1.2/C_ONCV_PBE-1.2.upf
     MD5 check sum: 1a5f83a7b1f58d24996abe00ed223ac6
     Pseudo is Norm-conserving, Zval =  4.0
     Generated using ONCVPSP code by D. R. Hamann
     Using radial grid of  602 points,  4 beta functions with:
                l(1) =   0
                l(2) =   0
                l(3) =   1
                l(4) =   1

     atomic species   valence    mass     pseudopotential
        C              4.00    12.01070     C ( 1.00)

     24 Sym. Ops., with inversion, found

   Cartesian axes

     site n.     atom                  positions (alat units)
         1           C   tau(   1) = (  -0.0000000   0.6274739   4.7985782  )
         2           C   tau(   2) = (   0.5434084   0.3137370   4.7985782  )

     number of k points=    27  Methfessel-Paxton smearing, width (Ry)=  0.0100
                       cart. coord. in units 2pi/alat
        k(    1) = (   0.0000000   0.0000000   0.0000000), wk =   0.0088889
        k(    2) = (  -0.0000000   0.0708307   0.0000000), wk =   0.0533333
        k(    3) = (  -0.0000000   0.1416615   0.0000000), wk =   0.0533333
        k(    4) = (  -0.0000000   0.2124922   0.0000000), wk =   0.0533333
        k(    5) = (  -0.0000000   0.2833230   0.0000000), wk =   0.0533333
        k(    6) = (  -0.0000000   0.3541537   0.0000000), wk =   0.0533333
        k(    7) = (  -0.0000000   0.4249844   0.0000000), wk =   0.0533333
        k(    8) = (  -0.0000000   0.4958152   0.0000000), wk =   0.0533333
        k(    9) = (   0.0613412   0.1062461   0.0000000), wk =   0.0533333
        k(   10) = (   0.0613412   0.1770769   0.0000000), wk =   0.1066667
        k(   11) = (   0.0613412   0.2479076   0.0000000), wk =   0.1066667
        k(   12) = (   0.0613412   0.3187383   0.0000000), wk =   0.1066667
        k(   13) = (   0.0613412   0.3895691   0.0000000), wk =   0.1066667
        k(   14) = (   0.0613412   0.4603998   0.0000000), wk =   0.1066667
        k(   15) = (   0.0613412   0.5312306   0.0000000), wk =   0.0533333
        k(   16) = (   0.1226824   0.2124922   0.0000000), wk =   0.0533333
        k(   17) = (   0.1226824   0.2833230   0.0000000), wk =   0.1066667
        k(   18) = (   0.1226824   0.3541537   0.0000000), wk =   0.1066667
        k(   19) = (   0.1226824   0.4249844   0.0000000), wk =   0.1066667
        k(   20) = (   0.1226824   0.4958152   0.0000000), wk =   0.1066667
        k(   21) = (   0.1840237   0.3187383   0.0000000), wk =   0.0533333
        k(   22) = (   0.1840237   0.3895691   0.0000000), wk =   0.1066667
        k(   23) = (   0.1840237   0.4603998   0.0000000), wk =   0.1066667
        k(   24) = (   0.1840237   0.5312306   0.0000000), wk =   0.0533333
        k(   25) = (   0.2453649   0.4249844   0.0000000), wk =   0.0533333
        k(   26) = (   0.2453649   0.4958152   0.0000000), wk =   0.1066667
        k(   27) = (   0.3067061   0.5312306   0.0000000), wk =   0.0177778

     Initial potential from superposition of free atoms

     starting charge    7.98607, renormalised to    8.00000

     negative rho (up, down):  1.117E-04 0.000E+00
     Starting wfcs are random

     Self-consistent Calculation

     iteration #  1     ecut=    50.00 Ry     beta= 0.70
     Davidson diagonalization with overlap
     c_bands:  1 eigenvalues not converged
     c_bands:  1 eigenvalues not converged
     c_bands:  3 eigenvalues not converged
     c_bands:  4 eigenvalues not converged
     c_bands:  4 eigenvalues not converged
     c_bands:  2 eigenvalues not converged
     c_bands:  2 eigenvalues not converged
     c_bands:  2 eigenvalues not converged
     c_bands:  5 eigenvalues not converged
     c_bands:  5 eigenvalues not converged
     c_bands:  4 eigenvalues not converged
     c_bands:  4 eigenvalues not converged
     c_bands:  4 eigenvalues not converged
     c_bands:  2 eigenvalues not converged
     c_bands:  2 eigenvalues not converged
     c_bands:  4 eigenvalues not converged
     c_bands:  4 eigenvalues not converged
     c_bands:  3 eigenvalues not converged
     c_bands:  3 eigenvalues not converged
     c_bands:  3 eigenvalues not converged
     c_bands:  4 eigenvalues not converged
     c_bands:  3 eigenvalues not converged
     c_bands:  3 eigenvalues not converged
     c_bands:  3 eigenvalues not converged
     c_bands:  4 eigenvalues not converged
     c_bands:  3 eigenvalues not converged
     c_bands:  3 eigenvalues not converged
     ethr =  1.00E-06,  avg # of iterations = 22.2

[...]

     negative rho (up, down):  2.744E-06 0.000E+00

[...]

     total energy              =     -22.78820072 Ry
     estimated scf accuracy    <          1.0E-09 Ry

     iteration #  7     ecut=    50.00 Ry     beta= 0.70
     Davidson diagonalization with overlap
     ethr =  1.30E-11,  avg # of iterations =  3.3

     End of self-consistent calculation

[...]

          k =-0.0000 0.4958 0.0000 (  4431 PWs)   bands (ev):

[...]

          k = 0.3067 0.5312 0.0000 (  4395 PWs)   bands (ev):

   -16.8770 -16.8770 -15.0573  -4.1039  -4.1039   6.5929   9.0941   9.0943

     the Fermi energy is    -4.1039 ev

!    total energy              =     -22.78820072 Ry
     estimated scf accuracy    <          1.1E-11 Ry
     smearing contrib. (-TS)   =      -0.00005015 Ry
     internal energy E=F+TS    =     -22.78815057 Ry

     The total energy is F=E-TS. E is the sum of the following terms:
     one-electron contribution =    -399.41416840 Ry
     hartree contribution      =     200.35839552 Ry
     xc contribution           =      -7.07882107 Ry
     ewald contribution        =     183.34644337 Ry

     convergence has been achieved in   7 iterations

     Forces acting on atoms (cartesian axes, Ry/au):

     atom    1 type  1   force =     0.00000000    0.00000000    0.00000000
     atom    2 type  1   force =     0.00000000    0.00000000    0.00000000

     Total force =     0.000000     Total SCF correction =     0.000000

     Computing stress (Cartesian axis) and pressure

          total   stress  (Ry/bohr**3)                   (kbar)     P=        5.19
   0.00010894   0.00000000  -0.00000000           16.03        0.00       -0.00
   0.00000000   0.00010894   0.00000000            0.00       16.03        0.00
   0.00000000   0.00000000  -0.00011212            0.00        0.00      -16.49

     Writing output data file ./work/LiC422.save/

     General routines

     Parallel routines

   This run was terminated on:  14: 6: 0  19Jan2024

   JOB DONE.