     Program PWSCF v.6.7MaX starts on 19Jan2024 at 14:17: 8

     R & G space division:  proc/nbgrp/npool/nimage =      32
     Waiting for input...
     Reading input from standard input

     Current dimensions of program PWSCF are:
     Max number of different atomic species (ntypx) = 10
     Max number of k-points (npk) =  40000
     Max angular momentum in pseudopotentials (lmaxx) =  3
     Message from routine read_pp_mesh:
     mesh size missing, using the one in header

     Subspace diagonalization in iterative solution of the eigenvalue problem:
     a serial algorithm will be used

     bravais-lattice index     =            4
     lattice parameter (alat)  =       4.8200  a.u.
     unit-cell volume          =     814.8539 (a.u.)^3
     number of atoms/cell      =            2
     number of atomic types    =            1
     number of electrons       =         8.00
     number of Kohn-Sham states=            8
     kinetic-energy cutoff     =      50.0000  Ry
     charge density cutoff     =     200.0000  Ry
     scf convergence threshold =      1.0E-08
     mixing beta               =       0.7000
     number of iterations used =            8  plain     mixing
     energy convergence thresh.=      1.0E-04
     force convergence thresh. =      1.0E-08
     press convergence thresh. =      1.0E-03
     Exchange-correlation= PBE
                           (   1   4   3   4   0   0   0)
     nstep                     =           50

     celldm(1)=   4.820000  celldm(2)=   0.000000  celldm(3)=   8.402490
     celldm(4)=   0.000000  celldm(5)=   0.000000  celldm(6)=   0.000000

     crystal axes: (cart. coord. in units of alat)
               a(1) = (   1.000000   0.000000   0.000000 )
               a(2) = (  -0.500000   0.866025   0.000000 )
               a(3) = (   0.000000   0.000000   8.402490 )

     reciprocal axes: (cart. coord. in units 2 pi/alat)
               b(1) = (  1.000000  0.577350  0.000000 )
               b(2) = (  0.000000  1.154701  0.000000 )
               b(3) = (  0.000000  0.000000  0.119012 )

     PseudoPot. # 1 for C  read from file:
     /home/yhkim/qe-6.7/pseudo/ONCV1/1.2/C_ONCV_PBE-1.2.upf
     MD5 check sum: 1a5f83a7b1f58d24996abe00ed223ac6
     Pseudo is Norm-conserving, Zval =  4.0
     Generated using ONCVPSP code by D. R. Hamann
     Using radial grid of  602 points,  4 beta functions with:
                l(1) =   0
                l(2) =   0
                l(3) =   1
                l(4) =   1

     atomic species   valence    mass     pseudopotential
        C              4.00    12.01070     C ( 1.00)

     24 Sym. Ops., with inversion, found

   Cartesian axes

     site n.     atom                  positions (alat units)
         1           C   tau(   1) = (  -0.0000000   0.5773503   4.2012448  )
         2           C   tau(   2) = (   0.5000000   0.2886751   4.2012448  )

     number of k points=    27  Methfessel-Paxton smearing, width (Ry)=  0.0100
                       cart. coord. in units 2pi/alat
        k(    1) = (   0.0000000   0.0000000   0.0000000), wk =   0.0088889
        k(    2) = (   0.0000000   0.0769800   0.0000000), wk =   0.0533333
        k(    3) = (   0.0000000   0.1539601   0.0000000), wk =   0.0533333
        k(    4) = (   0.0000000   0.2309401   0.0000000), wk =   0.0533333
        k(    5) = (   0.0000000   0.3079201   0.0000000), wk =   0.0533333
        k(    6) = (   0.0000000   0.3849002   0.0000000), wk =   0.0533333
        k(    7) = (   0.0000000   0.4618802   0.0000000), wk =   0.0533333
        k(    8) = (   0.0000000   0.5388603   0.0000000), wk =   0.0533333
        k(    9) = (   0.0666667   0.1154701   0.0000000), wk =   0.0533333
        k(   10) = (   0.0666667   0.1924501   0.0000000), wk =   0.1066667
        k(   11) = (   0.0666667   0.2694301   0.0000000), wk =   0.1066667
        k(   12) = (   0.0666667   0.3464102   0.0000000), wk =   0.1066667
        k(   13) = (   0.0666667   0.4233902   0.0000000), wk =   0.1066667
        k(   14) = (   0.0666667   0.5003702   0.0000000), wk =   0.1066667
        k(   15) = (   0.0666667   0.5773503   0.0000000), wk =   0.0533333
        k(   16) = (   0.1333333   0.2309401   0.0000000), wk =   0.0533333
        k(   17) = (   0.1333333   0.3079201   0.0000000), wk =   0.1066667
        k(   18) = (   0.1333333   0.3849002   0.0000000), wk =   0.1066667
        k(   19) = (   0.1333333   0.4618802   0.0000000), wk =   0.1066667
        k(   20) = (   0.1333333   0.5388603   0.0000000), wk =   0.1066667
        k(   21) = (   0.2000000   0.3464102   0.0000000), wk =   0.0533333
        k(   22) = (   0.2000000   0.4233902   0.0000000), wk =   0.1066667
        k(   23) = (   0.2000000   0.5003702   0.0000000), wk =   0.1066667
        k(   24) = (   0.2000000   0.5773503   0.0000000), wk =   0.0533333
        k(   25) = (   0.2666667   0.4618802   0.0000000), wk =   0.0533333
        k(   26) = (   0.2666667   0.5388603   0.0000000), wk =   0.1066667
        k(   27) = (   0.3333333   0.5773503   0.0000000), wk =   0.0177778

     Initial potential from superposition of free atoms

     starting charge    7.98607, renormalised to    8.00000

     negative rho (up, down):  1.184E-04 0.000E+00
     Starting wfcs are random

     Self-consistent Calculation

     iteration #  1     ecut=    50.00 Ry     beta= 0.70
     Davidson diagonalization with overlap
     ethr =  1.00E-02,  avg # of iterations = 11.9

     negative rho (up, down):  1.669E-07 0.000E+00

     total energy              =     -22.75664823 Ry
     estimated scf accuracy    <       0.12218544 Ry

[...]

     iteration #  4     ecut=    50.00 Ry     beta= 0.70
     Davidson diagonalization with overlap
     c_bands:  1 eigenvalues not converged
     ethr =  1.68E-06,  avg # of iterations =  6.4

[...]

     End of self-consistent calculation

          k = 0.0000 0.0000 0.0000 (  4963 PWs)   bands (ev):

   -23.2694 -11.4894  -7.6230  -7.6230  -0.9589  -0.2001   0.5953   0.9489

[...]

     the Fermi energy is    -4.5204 ev

!    total energy              =     -22.78033229 Ry
     estimated scf accuracy    <          4.6E-10 Ry
     smearing contrib. (-TS)   =      -0.00005015 Ry
     internal energy E=F+TS    =     -22.78028214 Ry

     The total energy is F=E-TS. E is the sum of the following terms:
     one-electron contribution =    -361.23659909 Ry
     hartree contribution      =     181.17389705 Ry
     xc contribution           =      -6.86840714 Ry
     ewald contribution        =     164.15082703 Ry

     convergence has been achieved in   6 iterations

     Forces acting on atoms (cartesian axes, Ry/au):

     atom    1 type  1   force =    -0.00000000   -0.00000000    0.00000000
     atom    2 type  1   force =     0.00000000    0.00000000    0.00000000

     Total force =     0.000000     Total SCF correction =     0.000000

     Computing stress (Cartesian axis) and pressure

          total   stress  (Ry/bohr**3)                   (kbar)     P=      -51.26
  -0.00047380   0.00000000  -0.00000000          -69.70        0.00       -0.00
   0.00000000  -0.00047380   0.00000000            0.00      -69.70        0.00
   0.00000000   0.00000000  -0.00009771            0.00        0.00      -14.37

     BFGS Geometry Optimization
     Energy error            =      0.0E+00
     Gradient error          =      1.7E-26
     Cell gradient error     =      4.7E-04

     number of scf cycles    =   1
     number of bfgs steps    =   0

     enthalpy new            =     -22.7803322950 Ry

     new trust radius        =       0.0676248466 bohr
     new conv_thr            =       0.0000000100 Ry

     new unit-cell volume =    795.66425 a.u.^3 (   117.90528 Ang^3 )
     density =      0.33831 g/cm^3

CELL_PARAMETERS (alat=  4.82000000)
   0.988154963  -0.000000000   0.000000000
  -0.494077481   0.855767300   0.000000000
   0.000000000   0.000000000   8.402489627

ATOMIC_POSITIONS (crystal)
C             0.3333333333        0.6666666667        0.5000000000
C             0.6666666667        0.3333333333        0.5000000000

     Writing output data file ./work/LiC482.save/
     NEW-OLD atomic charge density approx. for the potential

     negative rho (up, down):  5.166E-06 0.000E+00
     extrapolated charge    7.80739, renormalised to    8.00000

[...]

     Energy error            =      7.9E-03
     Gradient error          =      0.0E+00
     Cell gradient error     =      3.5E-04

[...]

     enthalpy old            =     -22.7803322950 Ry
     enthalpy new            =     -22.7882442608 Ry

     CASE: enthalpy_new < enthalpy_old

[...]

     Writing output data file ./work/LiC482.save/
     NEW-OLD atomic charge density approx. for the potential

     negative rho (up, down):  1.798E-08 0.000E+00
     extrapolated charge    8.02625, renormalised to    8.00000

[...]

     Writing output data file ./work/LiC482.save/
     NEW-OLD atomic charge density approx. for the potential
     extrapolated charge    7.99868, renormalised to    8.00000

[...]

     Threshold (ethr) on eigenvalues was too large:
     Diagonalizing with lowered threshold

     Davidson diagonalization with overlap
     ethr =  6.03E-09,  avg # of iterations =  1.3

[...]

     number of scf cycles    =   6
     number of bfgs steps    =   5

     enthalpy old            =     -22.7960633543 Ry
     enthalpy new            =     -22.7960634216 Ry

     CASE: enthalpy_new < enthalpy_old

     small trust_radius: resetting bfgs history

     new trust radius        =       0.0000012671 bohr
     new conv_thr            =            1.0E-10 Ry

     new unit-cell volume =    752.80435 a.u.^3 (   111.55410 Ang^3 )
     density =      0.35757 g/cm^3

[...]

ATOMIC_POSITIONS (crystal)
C             0.3333333333        0.6666666667        0.5000000000
C             0.6666666667        0.3333333333        0.5000000000

     Writing output data file ./work/LiC482.save/
     NEW-OLD atomic charge density approx. for the potential
     extrapolated charge    8.00000, renormalised to    8.00000

[...]

     Threshold (ethr) on eigenvalues was too large:
     Diagonalizing with lowered threshold

     Davidson diagonalization with overlap
     ethr =  3.89E-13,  avg # of iterations =  2.6

[...]

     Energy error            =      4.8E-11
     Gradient error          =      0.0E+00
     Cell gradient error     =      3.2E-09

     bfgs converged in   7 scf cycles and   6 bfgs steps
     (criteria: energy <  1.0E-04 Ry, force <  1.0E-08Ry/Bohr, cell <  1.0E-03kbar)

     End of BFGS Geometry Optimization

     Final enthalpy =     -22.7960634216 Ry

     File ./work/LiC482.bfgs deleted, as requested
Begin final coordinates
     new unit-cell volume =    752.80435 a.u.^3 (   111.55410 Ang^3 )
     density =      0.35757 g/cm^3

CELL_PARAMETERS (alat=  4.82000000)
   0.961172185  -0.000000000   0.000000000
  -0.480586093   0.832399530   0.000000000
   0.000000000   0.000000000   8.402489627

ATOMIC_POSITIONS (crystal)
C             0.3333333333        0.6666666667        0.5000000000
C             0.6666666667        0.3333333333        0.5000000000
End final coordinates

     Writing output data file ./work/LiC482.save/

     Final scf calculation at the relaxed structure.
     The G-vectors are recalculated for the final unit cell
     Results may differ from those at the preceding step.

     bravais-lattice index     =            4
     lattice parameter (alat)  =       4.8200  a.u.
     unit-cell volume          =     752.8044 (a.u.)^3
     number of atoms/cell      =            2
     number of atomic types    =            1
     number of electrons       =         8.00
     number of Kohn-Sham states=            8
     kinetic-energy cutoff     =      50.0000  Ry
     charge density cutoff     =     200.0000  Ry
     scf convergence threshold =      1.0E-10
     mixing beta               =       0.7000
     number of iterations used =            8  plain     mixing
     press convergence thresh. =      1.0E-03
     Exchange-correlation= PBE
                           (   1   4   3   4   0   0   0)

     celldm(1)=   4.820000  celldm(2)=   0.000000  celldm(3)=   8.402490
     celldm(4)=   0.000000  celldm(5)=   0.000000  celldm(6)=   0.000000

     crystal axes: (cart. coord. in units of alat)
               a(1) = (   0.961172  -0.000000   0.000000 )
               a(2) = (  -0.480586   0.832400   0.000000 )
               a(3) = (   0.000000   0.000000   8.402490 )

     reciprocal axes: (cart. coord. in units 2 pi/alat)
               b(1) = (  1.040396  0.600673  0.000000 )
               b(2) = (  0.000000  1.201346  0.000000 )
               b(3) = (  0.000000  0.000000  0.119012 )

     PseudoPot. # 1 for C  read from file:
     /home/yhkim/qe-6.7/pseudo/ONCV1/1.2/C_ONCV_PBE-1.2.upf
     MD5 check sum: 1a5f83a7b1f58d24996abe00ed223ac6
     Pseudo is Norm-conserving, Zval =  4.0
     Generated using ONCVPSP code by D. R. Hamann
     Using radial grid of  602 points,  4 beta functions with:
                l(1) =   0
                l(2) =   0
                l(3) =   1
                l(4) =   1

     atomic species   valence    mass     pseudopotential
        C              4.00    12.01070     C ( 1.00)

     24 Sym. Ops., with inversion, found

   Cartesian axes

     site n.     atom                  positions (alat units)
         1           C   tau(   1) = (  -0.0000000   0.5549330   4.2012448  )
         2           C   tau(   2) = (   0.4805861   0.2774665   4.2012448  )

     number of k points=    27  Methfessel-Paxton smearing, width (Ry)=  0.0100
                       cart. coord. in units 2pi/alat
        k(    1) = (   0.0000000   0.0000000   0.0000000), wk =   0.0088889
        k(    2) = (   0.0000000   0.0800897   0.0000000), wk =   0.0533333
        k(    3) = (   0.0000000   0.1601795   0.0000000), wk =   0.0533333
        k(    4) = (   0.0000000   0.2402692   0.0000000), wk =   0.0533333
        k(    5) = (   0.0000000   0.3203590   0.0000000), wk =   0.0533333
        k(    6) = (   0.0000000   0.4004487   0.0000000), wk =   0.0533333
        k(    7) = (   0.0000000   0.4805385   0.0000000), wk =   0.0533333
        k(    8) = (   0.0000000   0.5606282   0.0000000), wk =   0.0533333
        k(    9) = (   0.0693598   0.1201346   0.0000000), wk =   0.0533333
        k(   10) = (   0.0693598   0.2002244   0.0000000), wk =   0.1066667
        k(   11) = (   0.0693598   0.2803141   0.0000000), wk =   0.1066667
        k(   12) = (   0.0693598   0.3604039   0.0000000), wk =   0.1066667
        k(   13) = (   0.0693598   0.4404936   0.0000000), wk =   0.1066667
        k(   14) = (   0.0693598   0.5205833   0.0000000), wk =   0.1066667
        k(   15) = (   0.0693598   0.6006731   0.0000000), wk =   0.0533333
        k(   16) = (   0.1387195   0.2402692   0.0000000), wk =   0.0533333
        k(   17) = (   0.1387195   0.3203590   0.0000000), wk =   0.1066667
        k(   18) = (   0.1387195   0.4004487   0.0000000), wk =   0.1066667
        k(   19) = (   0.1387195   0.4805385   0.0000000), wk =   0.1066667
        k(   20) = (   0.1387195   0.5606282   0.0000000), wk =   0.1066667
        k(   21) = (   0.2080793   0.3604039   0.0000000), wk =   0.0533333
        k(   22) = (   0.2080793   0.4404936   0.0000000), wk =   0.1066667
        k(   23) = (   0.2080793   0.5205833   0.0000000), wk =   0.1066667
        k(   24) = (   0.2080793   0.6006731   0.0000000), wk =   0.0533333
        k(   25) = (   0.2774390   0.4805385   0.0000000), wk =   0.0533333
        k(   26) = (   0.2774390   0.5606282   0.0000000), wk =   0.1066667
        k(   27) = (   0.3467988   0.6006731   0.0000000), wk =   0.0177778

     Initial potential from superposition of free atoms

     starting charge    7.98607, renormalised to    8.00000

     negative rho (up, down):  1.155E-04 0.000E+00
     Starting wfcs are random

     Self-consistent Calculation

[...]

     negative rho (up, down):  2.988E-06 0.000E+00

[...]

     iteration #  3     ecut=    50.00 Ry     beta= 0.70
     Davidson diagonalization with overlap
     c_bands:  1 eigenvalues not converged
     ethr =  2.93E-05,  avg # of iterations =  8.8

[...]

     total energy              =     -22.79057646 Ry
     estimated scf accuracy    <          9.8E-10 Ry

     iteration #  7     ecut=    50.00 Ry     beta= 0.70
     Davidson diagonalization with overlap
     ethr =  1.23E-11,  avg # of iterations =  3.0

     End of self-consistent calculation

[...]

          k = 0.3468 0.6007 0.0000 (  4473 PWs)   bands (ev):

   -16.8771 -16.8771 -14.9190  -4.1927  -4.1927   6.4572   8.8083   8.8083

     the Fermi energy is    -4.1927 ev

!    total energy              =     -22.79057646 Ry
     estimated scf accuracy    <          1.2E-11 Ry
     smearing contrib. (-TS)   =      -0.00005015 Ry
     internal energy E=F+TS    =     -22.79052631 Ry

     The total energy is F=E-TS. E is the sum of the following terms:
     one-electron contribution =    -391.34544068 Ry
     hartree contribution      =     196.30294914 Ry
     xc contribution           =      -7.03487994 Ry
     ewald contribution        =     179.28684518 Ry

     convergence has been achieved in   7 iterations

     Forces acting on atoms (cartesian axes, Ry/au):

     atom    1 type  1   force =    -0.00000000   -0.00000000    0.00000000
     atom    2 type  1   force =     0.00000000    0.00000000    0.00000000

     Total force =     0.000000     Total SCF correction =     0.000000

     Computing stress (Cartesian axis) and pressure

          total   stress  (Ry/bohr**3)                   (kbar)     P=       -8.34
  -0.00003040  -0.00000000   0.00000000           -4.47       -0.00        0.00
   0.00000000  -0.00003040   0.00000000            0.00       -4.47        0.00
   0.00000000   0.00000000  -0.00010933            0.00        0.00      -16.08

     Writing output data file ./work/LiC482.save/

     General routines

     Parallel routines

   This run was terminated on:  14:17:21  19Jan2024

   JOB DONE.