     Program PWSCF v.6.7MaX starts on 19Jan2024 at 14: 9:10

     R & G space division:  proc/nbgrp/npool/nimage =      32
     Waiting for input...
     Reading input from standard input

     Current dimensions of program PWSCF are:
     Max number of different atomic species (ntypx) = 10
     Max number of k-points (npk) =  40000
     Max angular momentum in pseudopotentials (lmaxx) =  3
     Message from routine read_pp_mesh:
     mesh size missing, using the one in header

     Subspace diagonalization in iterative solution of the eigenvalue problem:
     a serial algorithm will be used

     bravais-lattice index     =            4
     lattice parameter (alat)  =       4.3100  a.u.
     unit-cell volume          =     651.5387 (a.u.)^3
     number of atoms/cell      =            2
     number of atomic types    =            1
     number of electrons       =         8.00
     number of Kohn-Sham states=            8
     kinetic-energy cutoff     =      50.0000  Ry
     charge density cutoff     =     200.0000  Ry
     scf convergence threshold =      1.0E-08
     mixing beta               =       0.7000
     number of iterations used =            8  plain     mixing
     energy convergence thresh.=      1.0E-04
     force convergence thresh. =      1.0E-08
     press convergence thresh. =      1.0E-03
     Exchange-correlation= PBE
                           (   1   4   3   4   0   0   0)
     nstep                     =           50

     celldm(1)=   4.310000  celldm(2)=   0.000000  celldm(3)=   9.396752
     celldm(4)=   0.000000  celldm(5)=   0.000000  celldm(6)=   0.000000

     crystal axes: (cart. coord. in units of alat)
               a(1) = (   1.000000   0.000000   0.000000 )
               a(2) = (  -0.500000   0.866025   0.000000 )
               a(3) = (   0.000000   0.000000   9.396752 )

     reciprocal axes: (cart. coord. in units 2 pi/alat)
               b(1) = (  1.000000  0.577350  0.000000 )
               b(2) = (  0.000000  1.154701  0.000000 )
               b(3) = (  0.000000  0.000000  0.106420 )

     PseudoPot. # 1 for C  read from file:
     /home/yhkim/qe-6.7/pseudo/ONCV1/1.2/C_ONCV_PBE-1.2.upf
     MD5 check sum: 1a5f83a7b1f58d24996abe00ed223ac6
     Pseudo is Norm-conserving, Zval =  4.0
     Generated using ONCVPSP code by D. R. Hamann
     Using radial grid of  602 points,  4 beta functions with:
                l(1) =   0
                l(2) =   0
                l(3) =   1
                l(4) =   1

     atomic species   valence    mass     pseudopotential
        C              4.00    12.01070     C ( 1.00)

     24 Sym. Ops., with inversion, found

   Cartesian axes

     site n.     atom                  positions (alat units)
         1           C   tau(   1) = (  -0.0000000   0.5773503   4.6983759  )
         2           C   tau(   2) = (   0.5000000   0.2886751   4.6983759  )

     number of k points=    27  Methfessel-Paxton smearing, width (Ry)=  0.0100
                       cart. coord. in units 2pi/alat
        k(    1) = (   0.0000000   0.0000000   0.0000000), wk =   0.0088889
        k(    2) = (   0.0000000   0.0769800   0.0000000), wk =   0.0533333
        k(    3) = (   0.0000000   0.1539601   0.0000000), wk =   0.0533333
        k(    4) = (   0.0000000   0.2309401   0.0000000), wk =   0.0533333
        k(    5) = (   0.0000000   0.3079201   0.0000000), wk =   0.0533333
        k(    6) = (   0.0000000   0.3849002   0.0000000), wk =   0.0533333
        k(    7) = (   0.0000000   0.4618802   0.0000000), wk =   0.0533333
        k(    8) = (   0.0000000   0.5388603   0.0000000), wk =   0.0533333
        k(    9) = (   0.0666667   0.1154701   0.0000000), wk =   0.0533333
        k(   10) = (   0.0666667   0.1924501   0.0000000), wk =   0.1066667
        k(   11) = (   0.0666667   0.2694301   0.0000000), wk =   0.1066667
        k(   12) = (   0.0666667   0.3464102   0.0000000), wk =   0.1066667
        k(   13) = (   0.0666667   0.4233902   0.0000000), wk =   0.1066667
        k(   14) = (   0.0666667   0.5003702   0.0000000), wk =   0.1066667
        k(   15) = (   0.0666667   0.5773503   0.0000000), wk =   0.0533333
        k(   16) = (   0.1333333   0.2309401   0.0000000), wk =   0.0533333
        k(   17) = (   0.1333333   0.3079201   0.0000000), wk =   0.1066667
        k(   18) = (   0.1333333   0.3849002   0.0000000), wk =   0.1066667
        k(   19) = (   0.1333333   0.4618802   0.0000000), wk =   0.1066667
        k(   20) = (   0.1333333   0.5388603   0.0000000), wk =   0.1066667
        k(   21) = (   0.2000000   0.3464102   0.0000000), wk =   0.0533333
        k(   22) = (   0.2000000   0.4233902   0.0000000), wk =   0.1066667
        k(   23) = (   0.2000000   0.5003702   0.0000000), wk =   0.1066667
        k(   24) = (   0.2000000   0.5773503   0.0000000), wk =   0.0533333
        k(   25) = (   0.2666667   0.4618802   0.0000000), wk =   0.0533333
        k(   26) = (   0.2666667   0.5388603   0.0000000), wk =   0.1066667
        k(   27) = (   0.3333333   0.5773503   0.0000000), wk =   0.0177778

     Initial potential from superposition of free atoms

     starting charge    7.98607, renormalised to    8.00000

     negative rho (up, down):  1.082E-04 0.000E+00
     Starting wfcs are random

     Self-consistent Calculation

     iteration #  1     ecut=    50.00 Ry     beta= 0.70
     Davidson diagonalization with overlap
     ethr =  1.00E-02,  avg # of iterations = 11.8

     negative rho (up, down):  9.472E-08 0.000E+00

     total energy              =     -22.67045554 Ry
     estimated scf accuracy    <       0.31653026 Ry

[...]

     End of self-consistent calculation

          k = 0.0000 0.0000 0.0000 (  3871 PWs)   bands (ev):

   -25.0149 -12.8504  -6.4402  -1.0227  -0.2091   0.5657   0.9212   2.2458

[...]

     the Fermi energy is    -3.4711 ev

!    total energy              =     -22.71954816 Ry
     estimated scf accuracy    <          6.3E-09 Ry
     smearing contrib. (-TS)   =      -0.00003668 Ry
     internal energy E=F+TS    =     -22.71951149 Ry

     The total energy is F=E-TS. E is the sum of the following terms:
     one-electron contribution =    -453.01100766 Ry
     hartree contribution      =     227.29967139 Ry
     xc contribution           =      -7.36178806 Ry
     ewald contribution        =     210.35361284 Ry

     convergence has been achieved in   6 iterations

     Forces acting on atoms (cartesian axes, Ry/au):

     atom    1 type  1   force =     0.00000000    0.00000000    0.00000000
     atom    2 type  1   force =     0.00000000    0.00000000    0.00000000

     Total force =     0.000000     Total SCF correction =     0.000000

     Computing stress (Cartesian axis) and pressure

          total   stress  (Ry/bohr**3)                   (kbar)     P=      117.21
   0.00126077   0.00000000   0.00000000          185.47        0.00        0.00
   0.00000000   0.00126077   0.00000000            0.00      185.47        0.00
   0.00000000  -0.00000000  -0.00013125            0.00       -0.00      -19.31

     BFGS Geometry Optimization
     Energy error            =      0.0E+00
     Gradient error          =      0.0E+00
     Cell gradient error     =      1.3E-03

     number of scf cycles    =   1
     number of bfgs steps    =   0

     enthalpy new            =     -22.7195481650 Ry

     new trust radius        =       0.1609075250 bohr
     new conv_thr            =       0.0000000100 Ry

     new unit-cell volume =    693.25801 a.u.^3 (   102.73024 Ang^3 )
     density =      0.38828 g/cm^3

CELL_PARAMETERS (alat=  4.31000000)
   1.031519278   0.000000000   0.000000000
  -0.515759639   0.893321900   0.000000000
   0.000000000   0.000000000   9.396751740

ATOMIC_POSITIONS (crystal)
C             0.3333333333        0.6666666667        0.5000000000
C             0.6666666667        0.3333333333        0.5000000000

     Writing output data file ./work/LiC431.save/
     NEW-OLD atomic charge density approx. for the potential

     negative rho (up, down):  8.391E-05 0.000E+00
     extrapolated charge    8.48059, renormalised to    8.00000

[...]

     iteration #  1     ecut=    50.00 Ry     beta= 0.70
     Davidson diagonalization with overlap
     c_bands:  1 eigenvalues not converged
     c_bands:  2 eigenvalues not converged
     c_bands:  2 eigenvalues not converged
     c_bands:  2 eigenvalues not converged
     c_bands:  2 eigenvalues not converged
     c_bands:  3 eigenvalues not converged
     c_bands:  1 eigenvalues not converged
     c_bands:  1 eigenvalues not converged
     c_bands:  2 eigenvalues not converged
     c_bands:  2 eigenvalues not converged
     c_bands:  2 eigenvalues not converged
     c_bands:  4 eigenvalues not converged
     c_bands:  5 eigenvalues not converged
     c_bands:  2 eigenvalues not converged
     c_bands:  3 eigenvalues not converged
     c_bands:  3 eigenvalues not converged
     c_bands:  3 eigenvalues not converged
     c_bands:  4 eigenvalues not converged
     c_bands:  3 eigenvalues not converged
     c_bands:  4 eigenvalues not converged
     c_bands:  5 eigenvalues not converged
     c_bands:  5 eigenvalues not converged
     c_bands:  5 eigenvalues not converged
     c_bands:  5 eigenvalues not converged
     ethr =  1.00E-06,  avg # of iterations = 20.4

[...]

          k =-0.0000 0.0746 0.0000 (  3863 PWs)   bands (ev):

[...]

     Energy error            =      4.0E-02
     Gradient error          =      0.0E+00
     Cell gradient error     =      5.8E-04

[...]

     enthalpy old            =     -22.7195481650 Ry
     enthalpy new            =     -22.7591603400 Ry

     CASE: enthalpy_new < enthalpy_old

[...]

     Writing output data file ./work/LiC431.save/
     NEW-OLD atomic charge density approx. for the potential

     negative rho (up, down):  3.756E-06 0.000E+00
     extrapolated charge    8.08727, renormalised to    8.00000

[...]

     Writing output data file ./work/LiC431.save/
     NEW-OLD atomic charge density approx. for the potential
     extrapolated charge    8.01033, renormalised to    8.00000

[...]

     small trust_radius: resetting bfgs history

[...]

     Threshold (ethr) on eigenvalues was too large:
     Diagonalizing with lowered threshold

     Davidson diagonalization with overlap
     ethr =  2.49E-11,  avg # of iterations =  1.8

[...]

     Energy error            =      1.3E-09
     Gradient error          =      0.0E+00
     Cell gradient error     =      1.3E-07

     number of scf cycles    =   6
     number of bfgs steps    =   5

     enthalpy old            =     -22.7721304199 Ry
     enthalpy new            =     -22.7721304212 Ry

     CASE: enthalpy_new < enthalpy_old

     Message from routine bfgs:
     history already reset at previous step: stopping
     small trust_radius: resetting bfgs history

     new trust radius        =       0.0000171694 bohr
     new conv_thr            =            1.0E-10 Ry

     new unit-cell volume =    740.73074 a.u.^3 (   109.76497 Ang^3 )
     density =      0.36340 g/cm^3

[...]

ATOMIC_POSITIONS (crystal)
C             0.3333333333        0.6666666667        0.5000000000
C             0.6666666667        0.3333333333        0.5000000000

     Writing output data file ./work/LiC431.save/
     NEW-OLD atomic charge density approx. for the potential
     extrapolated charge    8.00005, renormalised to    8.00000

[...]

     Threshold (ethr) on eigenvalues was too large:
     Diagonalizing with lowered threshold

     Davidson diagonalization with overlap
     ethr =  1.19E-11,  avg # of iterations =  1.9

[...]

     Message from routine bfgs:
     history already reset at previous step: stopping
     Energy error            =      4.8E-10
     Gradient error          =      1.6E-26
     Cell gradient error     =      7.9E-08

     bfgs converged in   7 scf cycles and   6 bfgs steps
     (criteria: energy <  1.0E-04 Ry, force <  1.0E-08Ry/Bohr, cell <  1.0E-03kbar)

     End of BFGS Geometry Optimization

     Final enthalpy =     -22.7721304217 Ry

     File ./work/LiC431.bfgs deleted, as requested
Begin final coordinates
     new unit-cell volume =    740.73074 a.u.^3 (   109.76497 Ang^3 )
     density =      0.36340 g/cm^3

CELL_PARAMETERS (alat=  4.31000000)
   1.066252560   0.000000000   0.000000000
  -0.533126280   0.923401803   0.000000000
   0.000000000   0.000000000   9.396751740

ATOMIC_POSITIONS (crystal)
C             0.3333333333        0.6666666667        0.5000000000
C             0.6666666667        0.3333333333        0.5000000000
End final coordinates

     Writing output data file ./work/LiC431.save/

     Final scf calculation at the relaxed structure.
     The G-vectors are recalculated for the final unit cell
     Results may differ from those at the preceding step.

     bravais-lattice index     =            4
     lattice parameter (alat)  =       4.3100  a.u.
     unit-cell volume          =     740.7307 (a.u.)^3
     number of atoms/cell      =            2
     number of atomic types    =            1
     number of electrons       =         8.00
     number of Kohn-Sham states=            8
     kinetic-energy cutoff     =      50.0000  Ry
     charge density cutoff     =     200.0000  Ry
     scf convergence threshold =      1.0E-10
     mixing beta               =       0.7000
     number of iterations used =            8  plain     mixing
     press convergence thresh. =      1.0E-03
     Exchange-correlation= PBE
                           (   1   4   3   4   0   0   0)

     celldm(1)=   4.310000  celldm(2)=   0.000000  celldm(3)=   9.396752
     celldm(4)=   0.000000  celldm(5)=   0.000000  celldm(6)=   0.000000

     crystal axes: (cart. coord. in units of alat)
               a(1) = (   1.066253   0.000000   0.000000 )
               a(2) = (  -0.533126   0.923402   0.000000 )
               a(3) = (   0.000000   0.000000   9.396752 )

     reciprocal axes: (cart. coord. in units 2 pi/alat)
               b(1) = (  0.937864  0.541476  0.000000 )
               b(2) = ( -0.000000  1.082952  0.000000 )
               b(3) = (  0.000000  0.000000  0.106420 )

     PseudoPot. # 1 for C  read from file:
     /home/yhkim/qe-6.7/pseudo/ONCV1/1.2/C_ONCV_PBE-1.2.upf
     MD5 check sum: 1a5f83a7b1f58d24996abe00ed223ac6
     Pseudo is Norm-conserving, Zval =  4.0
     Generated using ONCVPSP code by D. R. Hamann
     Using radial grid of  602 points,  4 beta functions with:
                l(1) =   0
                l(2) =   0
                l(3) =   1
                l(4) =   1

     atomic species   valence    mass     pseudopotential
        C              4.00    12.01070     C ( 1.00)

     24 Sym. Ops., with inversion, found

   Cartesian axes

     site n.     atom                  positions (alat units)
         1           C   tau(   1) = (  -0.0000000   0.6156012   4.6983759  )
         2           C   tau(   2) = (   0.5331263   0.3078006   4.6983759  )

     number of k points=    27  Methfessel-Paxton smearing, width (Ry)=  0.0100
                       cart. coord. in units 2pi/alat
        k(    1) = (   0.0000000   0.0000000   0.0000000), wk =   0.0088889
        k(    2) = (  -0.0000000   0.0721968   0.0000000), wk =   0.0533333
        k(    3) = (  -0.0000000   0.1443936   0.0000000), wk =   0.0533333
        k(    4) = (  -0.0000000   0.2165904   0.0000000), wk =   0.0533333
        k(    5) = (  -0.0000000   0.2887872   0.0000000), wk =   0.0533333
        k(    6) = (  -0.0000000   0.3609841   0.0000000), wk =   0.0533333
        k(    7) = (  -0.0000000   0.4331809   0.0000000), wk =   0.0533333
        k(    8) = (  -0.0000000   0.5053777   0.0000000), wk =   0.0533333
        k(    9) = (   0.0625243   0.1082952   0.0000000), wk =   0.0533333
        k(   10) = (   0.0625243   0.1804920   0.0000000), wk =   0.1066667
        k(   11) = (   0.0625243   0.2526888   0.0000000), wk =   0.1066667
        k(   12) = (   0.0625243   0.3248857   0.0000000), wk =   0.1066667
        k(   13) = (   0.0625243   0.3970825   0.0000000), wk =   0.1066667
        k(   14) = (   0.0625243   0.4692793   0.0000000), wk =   0.1066667
        k(   15) = (   0.0625243   0.5414761   0.0000000), wk =   0.0533333
        k(   16) = (   0.1250485   0.2165904   0.0000000), wk =   0.0533333
        k(   17) = (   0.1250485   0.2887872   0.0000000), wk =   0.1066667
        k(   18) = (   0.1250485   0.3609841   0.0000000), wk =   0.1066667
        k(   19) = (   0.1250485   0.4331809   0.0000000), wk =   0.1066667
        k(   20) = (   0.1250485   0.5053777   0.0000000), wk =   0.1066667
        k(   21) = (   0.1875728   0.3248857   0.0000000), wk =   0.0533333
        k(   22) = (   0.1875728   0.3970825   0.0000000), wk =   0.1066667
        k(   23) = (   0.1875728   0.4692793   0.0000000), wk =   0.1066667
        k(   24) = (   0.1875728   0.5414761   0.0000000), wk =   0.0533333
        k(   25) = (   0.2500971   0.4331809   0.0000000), wk =   0.0533333
        k(   26) = (   0.2500971   0.5053777   0.0000000), wk =   0.1066667
        k(   27) = (   0.3126214   0.5414761   0.0000000), wk =   0.0177778

     Initial potential from superposition of free atoms

     starting charge    7.98607, renormalised to    8.00000

     negative rho (up, down):  1.095E-04 0.000E+00
     Starting wfcs are random

     Self-consistent Calculation

[...]

     negative rho (up, down):  2.652E-06 0.000E+00

[...]

     iteration #  4     ecut=    50.00 Ry     beta= 0.70
     Davidson diagonalization with overlap
     c_bands:  1 eigenvalues not converged
     ethr =  2.20E-06,  avg # of iterations =  5.9

[...]

     total energy              =     -22.78884249 Ry
     estimated scf accuracy    <          8.2E-10 Ry

     iteration #  7     ecut=    50.00 Ry     beta= 0.70
     Davidson diagonalization with overlap
     ethr =  1.02E-11,  avg # of iterations =  3.3

     End of self-consistent calculation

[...]

          k =-0.0000 0.5054 0.0000 (  4449 PWs)   bands (ev):

[...]

          k = 0.3126 0.5415 0.0000 (  4395 PWs)   bands (ev):

   -16.8770 -16.8770 -15.0293  -4.1213  -4.1213   6.5657   9.0386   9.0387

     the Fermi energy is    -4.1213 ev

!    total energy              =     -22.78884249 Ry
     estimated scf accuracy    <          1.1E-11 Ry
     smearing contrib. (-TS)   =      -0.00005015 Ry
     internal energy E=F+TS    =     -22.78879234 Ry

     The total energy is F=E-TS. E is the sum of the following terms:
     one-electron contribution =    -397.80049204 Ry
     hartree contribution      =     199.54729950 Ry
     xc contribution           =      -7.07005528 Ry
     ewald contribution        =     182.53445548 Ry

     convergence has been achieved in   7 iterations

     Forces acting on atoms (cartesian axes, Ry/au):

     atom    1 type  1   force =     0.00000000    0.00000000    0.00000000
     atom    2 type  1   force =     0.00000000    0.00000000    0.00000000

     Total force =     0.000000     Total SCF correction =     0.000000

     Computing stress (Cartesian axis) and pressure

          total   stress  (Ry/bohr**3)                   (kbar)     P=        2.41
   0.00008039  -0.00000000   0.00000000           11.83       -0.00        0.00
  -0.00000000   0.00008039   0.00000000           -0.00       11.83        0.00
   0.00000000   0.00000000  -0.00011163            0.00        0.00      -16.42

     Writing output data file ./work/LiC431.save/

     General routines

     Parallel routines

   This run was terminated on:  14: 9:32  19Jan2024

   JOB DONE.