     Program PWSCF v.6.7MaX starts on 19Jan2024 at 13:56:39

     R & G space division:  proc/nbgrp/npool/nimage =      32
     Waiting for input...
     Reading input from standard input

     Current dimensions of program PWSCF are:
     Max number of different atomic species (ntypx) = 10
     Max number of k-points (npk) =  40000
     Max angular momentum in pseudopotentials (lmaxx) =  3
     Message from routine read_pp_mesh:
     mesh size missing, using the one in header

     Subspace diagonalization in iterative solution of the eigenvalue problem:
     a serial algorithm will be used

     bravais-lattice index     =            4
     lattice parameter (alat)  =       4.1100  a.u.
     unit-cell volume          =     592.4740 (a.u.)^3
     number of atoms/cell      =            2
     number of atomic types    =            1
     number of electrons       =         8.00
     number of Kohn-Sham states=            8
     kinetic-energy cutoff     =      50.0000  Ry
     charge density cutoff     =     200.0000  Ry
     scf convergence threshold =      1.0E-08
     mixing beta               =       0.7000
     number of iterations used =            8  plain     mixing
     energy convergence thresh.=      1.0E-04
     force convergence thresh. =      1.0E-08
     press convergence thresh. =      1.0E-03
     Exchange-correlation= PBE
                           (   1   4   3   4   0   0   0)
     nstep                     =           50

     celldm(1)=   4.110000  celldm(2)=   0.000000  celldm(3)=   9.854015
     celldm(4)=   0.000000  celldm(5)=   0.000000  celldm(6)=   0.000000

     crystal axes: (cart. coord. in units of alat)
               a(1) = (   1.000000   0.000000   0.000000 )
               a(2) = (  -0.500000   0.866025   0.000000 )
               a(3) = (   0.000000   0.000000   9.854015 )

     reciprocal axes: (cart. coord. in units 2 pi/alat)
               b(1) = (  1.000000  0.577350  0.000000 )
               b(2) = (  0.000000  1.154701  0.000000 )
               b(3) = (  0.000000  0.000000  0.101481 )

     PseudoPot. # 1 for C  read from file:
     /home/yhkim/qe-6.7/pseudo/ONCV1/1.2/C_ONCV_PBE-1.2.upf
     MD5 check sum: 1a5f83a7b1f58d24996abe00ed223ac6
     Pseudo is Norm-conserving, Zval =  4.0
     Generated using ONCVPSP code by D. R. Hamann
     Using radial grid of  602 points,  4 beta functions with:
                l(1) =   0
                l(2) =   0
                l(3) =   1
                l(4) =   1

     atomic species   valence    mass     pseudopotential
        C              4.00    12.01070     C ( 1.00)

     24 Sym. Ops., with inversion, found

   Cartesian axes

     site n.     atom                  positions (alat units)
         1           C   tau(   1) = (  -0.0000000   0.5773503   4.9270073  )
         2           C   tau(   2) = (   0.5000000   0.2886751   4.9270073  )

     number of k points=    27  Methfessel-Paxton smearing, width (Ry)=  0.0100
                       cart. coord. in units 2pi/alat
        k(    1) = (   0.0000000   0.0000000   0.0000000), wk =   0.0088889
        k(    2) = (   0.0000000   0.0769800   0.0000000), wk =   0.0533333
        k(    3) = (   0.0000000   0.1539601   0.0000000), wk =   0.0533333
        k(    4) = (   0.0000000   0.2309401   0.0000000), wk =   0.0533333
        k(    5) = (   0.0000000   0.3079201   0.0000000), wk =   0.0533333
        k(    6) = (   0.0000000   0.3849002   0.0000000), wk =   0.0533333
        k(    7) = (   0.0000000   0.4618802   0.0000000), wk =   0.0533333
        k(    8) = (   0.0000000   0.5388603   0.0000000), wk =   0.0533333
        k(    9) = (   0.0666667   0.1154701   0.0000000), wk =   0.0533333
        k(   10) = (   0.0666667   0.1924501   0.0000000), wk =   0.1066667
        k(   11) = (   0.0666667   0.2694301   0.0000000), wk =   0.1066667
        k(   12) = (   0.0666667   0.3464102   0.0000000), wk =   0.1066667
        k(   13) = (   0.0666667   0.4233902   0.0000000), wk =   0.1066667
        k(   14) = (   0.0666667   0.5003702   0.0000000), wk =   0.1066667
        k(   15) = (   0.0666667   0.5773503   0.0000000), wk =   0.0533333
        k(   16) = (   0.1333333   0.2309401   0.0000000), wk =   0.0533333
        k(   17) = (   0.1333333   0.3079201   0.0000000), wk =   0.1066667
        k(   18) = (   0.1333333   0.3849002   0.0000000), wk =   0.1066667
        k(   19) = (   0.1333333   0.4618802   0.0000000), wk =   0.1066667
        k(   20) = (   0.1333333   0.5388603   0.0000000), wk =   0.1066667
        k(   21) = (   0.2000000   0.3464102   0.0000000), wk =   0.0533333
        k(   22) = (   0.2000000   0.4233902   0.0000000), wk =   0.1066667
        k(   23) = (   0.2000000   0.5003702   0.0000000), wk =   0.1066667
        k(   24) = (   0.2000000   0.5773503   0.0000000), wk =   0.0533333
        k(   25) = (   0.2666667   0.4618802   0.0000000), wk =   0.0533333
        k(   26) = (   0.2666667   0.5388603   0.0000000), wk =   0.1066667
        k(   27) = (   0.3333333   0.5773503   0.0000000), wk =   0.0177778

     Initial potential from superposition of free atoms

     starting charge    7.98607, renormalised to    8.00000

     negative rho (up, down):  1.042E-04 0.000E+00
     Starting wfcs are random

     Self-consistent Calculation

     iteration #  1     ecut=    50.00 Ry     beta= 0.70
     Davidson diagonalization with overlap
     ethr =  1.00E-02,  avg # of iterations = 11.9

     negative rho (up, down):  2.075E-07 0.000E+00

     total energy              =     -22.53039745 Ry
     estimated scf accuracy    <       0.44539167 Ry

[...]

     End of self-consistent calculation

          k = 0.0000 0.0000 0.0000 (  3559 PWs)   bands (ev):

   -25.7320 -13.5001  -5.7171  -1.0423  -0.2130   0.5535   0.9081   2.2309

[...]

     the Fermi energy is    -2.9349 ev

!    total energy              =     -22.59867460 Ry
     estimated scf accuracy    <          4.1E-09 Ry
     smearing contrib. (-TS)   =      -0.00003668 Ry
     internal energy E=F+TS    =     -22.59863792 Ry

     The total energy is F=E-TS. E is the sum of the following terms:
     one-electron contribution =    -498.88278124 Ry
     hartree contribution      =     250.37401775 Ry
     xc contribution           =      -7.59464108 Ry
     ewald contribution        =     233.50476664 Ry

     convergence has been achieved in   6 iterations

     Forces acting on atoms (cartesian axes, Ry/au):

     atom    1 type  1   force =    -0.00000000   -0.00000000    0.00000000
     atom    2 type  1   force =     0.00000000    0.00000000    0.00000000

     Total force =     0.000000     Total SCF correction =     0.000000

     Computing stress (Cartesian axis) and pressure

          total   stress  (Ry/bohr**3)                   (kbar)     P=      245.05
   0.00257338   0.00000000   0.00000000          378.56        0.00        0.00
   0.00000000   0.00257338   0.00000000            0.00      378.56        0.00
   0.00000000  -0.00000000  -0.00014925            0.00       -0.00      -21.96

     BFGS Geometry Optimization
     Energy error            =      0.0E+00
     Gradient error          =      1.7E-26
     Cell gradient error     =      2.6E-03

     number of scf cycles    =   1
     number of bfgs steps    =   0

     enthalpy new            =     -22.5986746000 Ry

     new trust radius        =       0.3131904985 bohr
     new conv_thr            =       0.0000000100 Ry

     new unit-cell volume =    671.15925 a.u.^3 (    99.45554 Ang^3 )
     density =      0.40107 g/cm^3

CELL_PARAMETERS (alat=  4.11000000)
   1.064334501   0.000000000   0.000000000
  -0.532167251   0.921740716   0.000000000
   0.000000000   0.000000000   9.854014599

ATOMIC_POSITIONS (crystal)
C             0.3333333333        0.6666666667        0.5000000000
C             0.6666666667        0.3333333333        0.5000000000

     Writing output data file ./work/LiC411.save/
     NEW-OLD atomic charge density approx. for the potential

     negative rho (up, down):  1.690E-04 0.000E+00
     extrapolated charge    8.93627, renormalised to    8.00000

[...]

     iteration #  1     ecut=    50.00 Ry     beta= 0.70
     Davidson diagonalization with overlap
     c_bands:  1 eigenvalues not converged
     c_bands:  4 eigenvalues not converged
     c_bands:  4 eigenvalues not converged
     c_bands:  4 eigenvalues not converged
     c_bands:  4 eigenvalues not converged
     c_bands:  4 eigenvalues not converged
     c_bands:  5 eigenvalues not converged
     c_bands:  5 eigenvalues not converged
     c_bands:  4 eigenvalues not converged
     c_bands:  4 eigenvalues not converged
     c_bands:  4 eigenvalues not converged
     c_bands:  5 eigenvalues not converged
     c_bands:  5 eigenvalues not converged
     c_bands:  5 eigenvalues not converged
     c_bands:  1 eigenvalues not converged
     c_bands:  4 eigenvalues not converged
     c_bands:  5 eigenvalues not converged
     c_bands:  5 eigenvalues not converged
     c_bands:  5 eigenvalues not converged
     c_bands:  5 eigenvalues not converged
     c_bands:  5 eigenvalues not converged
     c_bands:  5 eigenvalues not converged
     c_bands:  1 eigenvalues not converged
     c_bands:  5 eigenvalues not converged
     c_bands:  1 eigenvalues not converged
     ethr =  1.00E-06,  avg # of iterations = 23.5

[...]

          k =-0.0000 0.0723 0.0000 (  3562 PWs)   bands (ev):

[...]

     Energy error            =      1.3E-01
     Gradient error          =      1.6E-26
     Cell gradient error     =      8.4E-04

[...]

     enthalpy old            =     -22.5986746000 Ry
     enthalpy new            =     -22.7288405680 Ry

     CASE: enthalpy_new < enthalpy_old

[...]

     Writing output data file ./work/LiC411.save/
     NEW-OLD atomic charge density approx. for the potential

     negative rho (up, down):  1.992E-06 0.000E+00
     extrapolated charge    8.02692, renormalised to    8.00000

[...]

     Writing output data file ./work/LiC411.save/
     NEW-OLD atomic charge density approx. for the potential
     extrapolated charge    8.00120, renormalised to    8.00000

[...]

     Threshold (ethr) on eigenvalues was too large:
     Diagonalizing with lowered threshold

     Davidson diagonalization with overlap
     ethr =  5.29E-09,  avg # of iterations =  1.0

[...]

     number of scf cycles    =   6
     number of bfgs steps    =   5

     enthalpy old            =     -22.7533881365 Ry
     enthalpy new            =     -22.7533882034 Ry

     CASE: enthalpy_new < enthalpy_old

     small trust_radius: resetting bfgs history

     new trust radius        =       0.0000015623 bohr
     new conv_thr            =            1.0E-10 Ry

     new unit-cell volume =    733.74480 a.u.^3 (   108.72976 Ang^3 )
     density =      0.36686 g/cm^3

[...]

ATOMIC_POSITIONS (crystal)
C             0.3333333333        0.6666666667        0.5000000000
C             0.6666666667        0.3333333333        0.5000000000

     Writing output data file ./work/LiC411.save/
     NEW-OLD atomic charge density approx. for the potential
     extrapolated charge    8.00000, renormalised to    8.00000

[...]

     Threshold (ethr) on eigenvalues was too large:
     Diagonalizing with lowered threshold

     Davidson diagonalization with overlap
     ethr =  1.44E-13,  avg # of iterations =  1.8

[...]

     Energy error            =      2.8E-11
     Gradient error          =      0.0E+00
     Cell gradient error     =      5.8E-09

     bfgs converged in   7 scf cycles and   6 bfgs steps
     (criteria: energy <  1.0E-04 Ry, force <  1.0E-08Ry/Bohr, cell <  1.0E-03kbar)

     End of BFGS Geometry Optimization

     Final enthalpy =     -22.7533882034 Ry

     File ./work/LiC411.bfgs deleted, as requested
Begin final coordinates
     new unit-cell volume =    733.74480 a.u.^3 (   108.72976 Ang^3 )
     density =      0.36686 g/cm^3

CELL_PARAMETERS (alat=  4.11000000)
   1.112853178   0.000000000   0.000000000
  -0.556426589   0.963759123   0.000000000
   0.000000000   0.000000000   9.854014599

ATOMIC_POSITIONS (crystal)
C             0.3333333333        0.6666666667        0.5000000000
C             0.6666666667        0.3333333333        0.5000000000
End final coordinates

     Writing output data file ./work/LiC411.save/

     Final scf calculation at the relaxed structure.
     The G-vectors are recalculated for the final unit cell
     Results may differ from those at the preceding step.

     bravais-lattice index     =            4
     lattice parameter (alat)  =       4.1100  a.u.
     unit-cell volume          =     733.7448 (a.u.)^3
     number of atoms/cell      =            2
     number of atomic types    =            1
     number of electrons       =         8.00
     number of Kohn-Sham states=            8
     kinetic-energy cutoff     =      50.0000  Ry
     charge density cutoff     =     200.0000  Ry
     scf convergence threshold =      1.0E-10
     mixing beta               =       0.7000
     number of iterations used =            8  plain     mixing
     press convergence thresh. =      1.0E-03
     Exchange-correlation= PBE
                           (   1   4   3   4   0   0   0)

     celldm(1)=   4.110000  celldm(2)=   0.000000  celldm(3)=   9.854015
     celldm(4)=   0.000000  celldm(5)=   0.000000  celldm(6)=   0.000000

     crystal axes: (cart. coord. in units of alat)
               a(1) = (   1.112853   0.000000   0.000000 )
               a(2) = (  -0.556427   0.963759   0.000000 )
               a(3) = (   0.000000   0.000000   9.854015 )

     reciprocal axes: (cart. coord. in units 2 pi/alat)
               b(1) = (  0.898591  0.518802  0.000000 )
               b(2) = ( -0.000000  1.037604  0.000000 )
               b(3) = (  0.000000  0.000000  0.101481 )

     PseudoPot. # 1 for C  read from file:
     /home/yhkim/qe-6.7/pseudo/ONCV1/1.2/C_ONCV_PBE-1.2.upf
     MD5 check sum: 1a5f83a7b1f58d24996abe00ed223ac6
     Pseudo is Norm-conserving, Zval =  4.0
     Generated using ONCVPSP code by D. R. Hamann
     Using radial grid of  602 points,  4 beta functions with:
                l(1) =   0
                l(2) =   0
                l(3) =   1
                l(4) =   1

     atomic species   valence    mass     pseudopotential
        C              4.00    12.01070     C ( 1.00)

     24 Sym. Ops., with inversion, found

   Cartesian axes

     site n.     atom                  positions (alat units)
         1           C   tau(   1) = (  -0.0000000   0.6425061   4.9270073  )
         2           C   tau(   2) = (   0.5564266   0.3212530   4.9270073  )

     number of k points=    27  Methfessel-Paxton smearing, width (Ry)=  0.0100
                       cart. coord. in units 2pi/alat
        k(    1) = (   0.0000000   0.0000000   0.0000000), wk =   0.0088889
        k(    2) = (  -0.0000000   0.0691736   0.0000000), wk =   0.0533333
        k(    3) = (  -0.0000000   0.1383472   0.0000000), wk =   0.0533333
        k(    4) = (  -0.0000000   0.2075207   0.0000000), wk =   0.0533333
        k(    5) = (  -0.0000000   0.2766943   0.0000000), wk =   0.0533333
        k(    6) = (  -0.0000000   0.3458679   0.0000000), wk =   0.0533333
        k(    7) = (  -0.0000000   0.4150415   0.0000000), wk =   0.0533333
        k(    8) = (  -0.0000000   0.4842150   0.0000000), wk =   0.0533333
        k(    9) = (   0.0599061   0.1037604   0.0000000), wk =   0.0533333
        k(   10) = (   0.0599061   0.1729339   0.0000000), wk =   0.1066667
        k(   11) = (   0.0599061   0.2421075   0.0000000), wk =   0.1066667
        k(   12) = (   0.0599061   0.3112811   0.0000000), wk =   0.1066667
        k(   13) = (   0.0599061   0.3804547   0.0000000), wk =   0.1066667
        k(   14) = (   0.0599061   0.4496283   0.0000000), wk =   0.1066667
        k(   15) = (   0.0599061   0.5188018   0.0000000), wk =   0.0533333
        k(   16) = (   0.1198122   0.2075207   0.0000000), wk =   0.0533333
        k(   17) = (   0.1198122   0.2766943   0.0000000), wk =   0.1066667
        k(   18) = (   0.1198122   0.3458679   0.0000000), wk =   0.1066667
        k(   19) = (   0.1198122   0.4150415   0.0000000), wk =   0.1066667
        k(   20) = (   0.1198122   0.4842150   0.0000000), wk =   0.1066667
        k(   21) = (   0.1797182   0.3112811   0.0000000), wk =   0.0533333
        k(   22) = (   0.1797182   0.3804547   0.0000000), wk =   0.1066667
        k(   23) = (   0.1797182   0.4496283   0.0000000), wk =   0.1066667
        k(   24) = (   0.1797182   0.5188018   0.0000000), wk =   0.0533333
        k(   25) = (   0.2396243   0.4150415   0.0000000), wk =   0.0533333
        k(   26) = (   0.2396243   0.4842150   0.0000000), wk =   0.1066667
        k(   27) = (   0.2995304   0.5188018   0.0000000), wk =   0.0177778

     Initial potential from superposition of free atoms

     starting charge    7.98607, renormalised to    8.00000

     negative rho (up, down):  1.107E-04 0.000E+00
     Starting wfcs are random

     Self-consistent Calculation

[...]

     negative rho (up, down):  2.821E-06 0.000E+00

[...]

     iteration #  4     ecut=    50.00 Ry     beta= 0.70
     Davidson diagonalization with overlap
     c_bands:  1 eigenvalues not converged
     ethr =  2.22E-06,  avg # of iterations =  6.2

[...]

     total energy              =     -22.78713301 Ry
     estimated scf accuracy    <          1.2E-09 Ry

     iteration #  7     ecut=    50.00 Ry     beta= 0.70
     Davidson diagonalization with overlap
     ethr =  1.52E-11,  avg # of iterations =  3.0

     End of self-consistent calculation

[...]

          k =-0.0000 0.4842 0.0000 (  4398 PWs)   bands (ev):

[...]

          k = 0.2995 0.5188 0.0000 (  4389 PWs)   bands (ev):

   -16.8769 -16.8769 -15.0955  -4.0792  -4.0792   6.6304   9.1699   9.1706

     the Fermi energy is    -4.0792 ev

!    total energy              =     -22.78713301 Ry
     estimated scf accuracy    <          1.2E-11 Ry
     smearing contrib. (-TS)   =      -0.00005015 Ry
     internal energy E=F+TS    =     -22.78708286 Ry

     The total energy is F=E-TS. E is the sum of the following terms:
     one-electron contribution =    -401.63403427 Ry
     hartree contribution      =     201.47421515 Ry
     xc contribution           =      -7.09086000 Ry
     ewald contribution        =     184.46359626 Ry

     convergence has been achieved in   7 iterations

     Forces acting on atoms (cartesian axes, Ry/au):

     atom    1 type  1   force =     0.00000000    0.00000000    0.00000000
     atom    2 type  1   force =     0.00000000    0.00000000    0.00000000

     Total force =     0.000000     Total SCF correction =     0.000000

     Computing stress (Cartesian axis) and pressure

          total   stress  (Ry/bohr**3)                   (kbar)     P=        9.03
   0.00014858  -0.00000000   0.00000000           21.86       -0.00        0.00
  -0.00000000   0.00014858  -0.00000000           -0.00       21.86       -0.00
   0.00000000   0.00000000  -0.00011298            0.00        0.00      -16.62

     Writing output data file ./work/LiC411.save/

     General routines

     Parallel routines

   This run was terminated on:  13:57: 7  19Jan2024

   JOB DONE.