     Program PWSCF v.6.7MaX starts on 19Jan2024 at 14:21:20

     R & G space division:  proc/nbgrp/npool/nimage =      32
     Waiting for input...
     Reading input from standard input

     Current dimensions of program PWSCF are:
     Max number of different atomic species (ntypx) = 10
     Max number of k-points (npk) =  40000
     Max angular momentum in pseudopotentials (lmaxx) =  3
     Message from routine read_pp_mesh:
     mesh size missing, using the one in header

     Subspace diagonalization in iterative solution of the eigenvalue problem:
     a serial algorithm will be used

     bravais-lattice index     =            4
     lattice parameter (alat)  =       4.9900  a.u.
     unit-cell volume          =     873.3468 (a.u.)^3
     number of atoms/cell      =            2
     number of atomic types    =            1
     number of electrons       =         8.00
     number of Kohn-Sham states=            8
     kinetic-energy cutoff     =      50.0000  Ry
     charge density cutoff     =     200.0000  Ry
     scf convergence threshold =      1.0E-08
     mixing beta               =       0.7000
     number of iterations used =            8  plain     mixing
     energy convergence thresh.=      1.0E-04
     force convergence thresh. =      1.0E-08
     press convergence thresh. =      1.0E-03
     Exchange-correlation= PBE
                           (   1   4   3   4   0   0   0)
     nstep                     =           50

     celldm(1)=   4.990000  celldm(2)=   0.000000  celldm(3)=   8.116232
     celldm(4)=   0.000000  celldm(5)=   0.000000  celldm(6)=   0.000000

     crystal axes: (cart. coord. in units of alat)
               a(1) = (   1.000000   0.000000   0.000000 )
               a(2) = (  -0.500000   0.866025   0.000000 )
               a(3) = (   0.000000   0.000000   8.116232 )

     reciprocal axes: (cart. coord. in units 2 pi/alat)
               b(1) = (  1.000000  0.577350  0.000000 )
               b(2) = (  0.000000  1.154701  0.000000 )
               b(3) = (  0.000000  0.000000  0.123210 )

     PseudoPot. # 1 for C  read from file:
     /home/yhkim/qe-6.7/pseudo/ONCV1/1.2/C_ONCV_PBE-1.2.upf
     MD5 check sum: 1a5f83a7b1f58d24996abe00ed223ac6
     Pseudo is Norm-conserving, Zval =  4.0
     Generated using ONCVPSP code by D. R. Hamann
     Using radial grid of  602 points,  4 beta functions with:
                l(1) =   0
                l(2) =   0
                l(3) =   1
                l(4) =   1

     atomic species   valence    mass     pseudopotential
        C              4.00    12.01070     C ( 1.00)

     24 Sym. Ops., with inversion, found

   Cartesian axes

     site n.     atom                  positions (alat units)
         1           C   tau(   1) = (  -0.0000000   0.5773503   4.0581162  )
         2           C   tau(   2) = (   0.5000000   0.2886751   4.0581162  )

     number of k points=    27  Methfessel-Paxton smearing, width (Ry)=  0.0100
                       cart. coord. in units 2pi/alat
        k(    1) = (   0.0000000   0.0000000   0.0000000), wk =   0.0088889
        k(    2) = (   0.0000000   0.0769800   0.0000000), wk =   0.0533333
        k(    3) = (   0.0000000   0.1539601   0.0000000), wk =   0.0533333
        k(    4) = (   0.0000000   0.2309401   0.0000000), wk =   0.0533333
        k(    5) = (   0.0000000   0.3079201   0.0000000), wk =   0.0533333
        k(    6) = (   0.0000000   0.3849002   0.0000000), wk =   0.0533333
        k(    7) = (   0.0000000   0.4618802   0.0000000), wk =   0.0533333
        k(    8) = (   0.0000000   0.5388603   0.0000000), wk =   0.0533333
        k(    9) = (   0.0666667   0.1154701   0.0000000), wk =   0.0533333
        k(   10) = (   0.0666667   0.1924501   0.0000000), wk =   0.1066667
        k(   11) = (   0.0666667   0.2694301   0.0000000), wk =   0.1066667
        k(   12) = (   0.0666667   0.3464102   0.0000000), wk =   0.1066667
        k(   13) = (   0.0666667   0.4233902   0.0000000), wk =   0.1066667
        k(   14) = (   0.0666667   0.5003702   0.0000000), wk =   0.1066667
        k(   15) = (   0.0666667   0.5773503   0.0000000), wk =   0.0533333
        k(   16) = (   0.1333333   0.2309401   0.0000000), wk =   0.0533333
        k(   17) = (   0.1333333   0.3079201   0.0000000), wk =   0.1066667
        k(   18) = (   0.1333333   0.3849002   0.0000000), wk =   0.1066667
        k(   19) = (   0.1333333   0.4618802   0.0000000), wk =   0.1066667
        k(   20) = (   0.1333333   0.5388603   0.0000000), wk =   0.1066667
        k(   21) = (   0.2000000   0.3464102   0.0000000), wk =   0.0533333
        k(   22) = (   0.2000000   0.4233902   0.0000000), wk =   0.1066667
        k(   23) = (   0.2000000   0.5003702   0.0000000), wk =   0.1066667
        k(   24) = (   0.2000000   0.5773503   0.0000000), wk =   0.0533333
        k(   25) = (   0.2666667   0.4618802   0.0000000), wk =   0.0533333
        k(   26) = (   0.2666667   0.5388603   0.0000000), wk =   0.1066667
        k(   27) = (   0.3333333   0.5773503   0.0000000), wk =   0.0177778

     Initial potential from superposition of free atoms

     starting charge    7.98607, renormalised to    8.00000

     negative rho (up, down):  1.266E-04 0.000E+00
     Starting wfcs are random

     Self-consistent Calculation

     iteration #  1     ecut=    50.00 Ry     beta= 0.70
     Davidson diagonalization with overlap
     ethr =  1.00E-02,  avg # of iterations = 12.5

     negative rho (up, down):  1.301E-07 0.000E+00

     total energy              =     -22.73121485 Ry
     estimated scf accuracy    <       0.08786451 Ry

[...]

     End of self-consistent calculation

          k = 0.0000 0.0000 0.0000 (  5263 PWs)   bands (ev):

   -22.7398 -11.1166  -7.8676  -7.8676  -0.9360  -0.1971   0.6047   0.9566

[...]

     the Fermi energy is    -4.7801 ev

!    total energy              =     -22.74877132 Ry
     estimated scf accuracy    <          1.2E-10 Ry
     smearing contrib. (-TS)   =      -0.00005015 Ry
     internal energy E=F+TS    =     -22.74872117 Ry

     The total energy is F=E-TS. E is the sum of the following terms:
     one-electron contribution =    -336.83504713 Ry
     hartree contribution      =     168.91775354 Ry
     xc contribution           =      -6.73069625 Ry
     ewald contribution        =     151.89926866 Ry

     convergence has been achieved in   6 iterations

     Forces acting on atoms (cartesian axes, Ry/au):

     atom    1 type  1   force =     0.00000000    0.00000000    0.00000000
     atom    2 type  1   force =     0.00000000    0.00000000    0.00000000

     Total force =     0.000000     Total SCF correction =     0.000000

     Computing stress (Cartesian axis) and pressure

          total   stress  (Ry/bohr**3)                   (kbar)     P=      -77.48
  -0.00074607  -0.00000000  -0.00000000         -109.75       -0.00       -0.00
  -0.00000000  -0.00074607   0.00000000           -0.00     -109.75        0.00
  -0.00000000   0.00000000  -0.00008806           -0.00        0.00      -12.95

     BFGS Geometry Optimization
     Energy error            =      0.0E+00
     Gradient error          =      0.0E+00
     Cell gradient error     =      7.5E-04

     number of scf cycles    =   1
     number of bfgs steps    =   0

     enthalpy new            =     -22.7487713203 Ry

     new trust radius        =       0.1102405745 bohr
     new conv_thr            =       0.0000000100 Ry

     new unit-cell volume =    841.07187 a.u.^3 (   124.63399 Ang^3 )
     density =      0.32004 g/cm^3

CELL_PARAMETERS (alat=  4.99000000)
   0.981348314  -0.000000000   0.000000000
  -0.490674157   0.849872570   0.000000000
   0.000000000   0.000000000   8.116232465

ATOMIC_POSITIONS (crystal)
C             0.3333333333        0.6666666667        0.5000000000
C             0.6666666667        0.3333333333        0.5000000000

     Writing output data file ./work/LiC499.save/
     NEW-OLD atomic charge density approx. for the potential

     negative rho (up, down):  7.416E-06 0.000E+00
     extrapolated charge    7.69355, renormalised to    8.00000

[...]

     iteration #  1     ecut=    50.00 Ry     beta= 0.70
     Davidson diagonalization with overlap
     c_bands:  3 eigenvalues not converged
     c_bands:  3 eigenvalues not converged
     c_bands:  3 eigenvalues not converged
     c_bands:  3 eigenvalues not converged
     c_bands:  1 eigenvalues not converged
     c_bands:  1 eigenvalues not converged
     c_bands:  2 eigenvalues not converged
     c_bands:  4 eigenvalues not converged
     c_bands:  2 eigenvalues not converged
     c_bands:  2 eigenvalues not converged
     c_bands:  2 eigenvalues not converged
     c_bands:  1 eigenvalues not converged
     c_bands:  1 eigenvalues not converged
     c_bands:  1 eigenvalues not converged
     c_bands:  1 eigenvalues not converged
     c_bands:  2 eigenvalues not converged
     c_bands:  2 eigenvalues not converged
     c_bands:  1 eigenvalues not converged
     c_bands:  1 eigenvalues not converged
     c_bands:  2 eigenvalues not converged
     c_bands:  1 eigenvalues not converged
     ethr =  1.00E-06,  avg # of iterations = 19.1

[...]

     Energy error            =      2.2E-02
     Gradient error          =      1.8E-26
     Cell gradient error     =      6.0E-04

[...]

     enthalpy old            =     -22.7487713203 Ry
     enthalpy new            =     -22.7705821110 Ry

     CASE: enthalpy_new < enthalpy_old

[...]

     Writing output data file ./work/LiC499.save/
     NEW-OLD atomic charge density approx. for the potential

     negative rho (up, down):  4.881E-05 0.000E+00
     extrapolated charge    7.46274, renormalised to    8.00000

[...]

     Writing output data file ./work/LiC499.save/
     NEW-OLD atomic charge density approx. for the potential
     extrapolated charge    7.99114, renormalised to    8.00000

[...]

     number of scf cycles    =   5
     number of bfgs steps    =   4

     enthalpy old            =     -22.7990263233 Ry
     enthalpy new            =     -22.7990288143 Ry

     CASE: enthalpy_new < enthalpy_old

     new trust radius        =       0.0003422419 bohr
     new conv_thr            =            1.0E-10 Ry

     new unit-cell volume =    754.70595 a.u.^3 (   111.83588 Ang^3 )
     density =      0.35667 g/cm^3

[...]

ATOMIC_POSITIONS (crystal)
C             0.3333333333        0.6666666667        0.5000000000
C             0.6666666667        0.3333333333        0.5000000000

     Writing output data file ./work/LiC499.save/
     NEW-OLD atomic charge density approx. for the potential
     extrapolated charge    8.00099, renormalised to    8.00000

[...]

     Threshold (ethr) on eigenvalues was too large:
     Diagonalizing with lowered threshold

     Davidson diagonalization with overlap
     ethr =  3.39E-09,  avg # of iterations =  1.1

[...]

     Energy error            =      4.1E-08
     Gradient error          =      0.0E+00
     Cell gradient error     =      4.0E-09

     bfgs converged in   6 scf cycles and   5 bfgs steps
     (criteria: energy <  1.0E-04 Ry, force <  1.0E-08Ry/Bohr, cell <  1.0E-03kbar)

     End of BFGS Geometry Optimization

     Final enthalpy =     -22.7990288550 Ry

     File ./work/LiC499.bfgs deleted, as requested
Begin final coordinates
     new unit-cell volume =    754.70595 a.u.^3 (   111.83588 Ang^3 )
     density =      0.35667 g/cm^3

CELL_PARAMETERS (alat=  4.99000000)
   0.929598713  -0.000000000   0.000000000
  -0.464799356   0.805056101   0.000000000
   0.000000000   0.000000000   8.116232465

ATOMIC_POSITIONS (crystal)
C             0.3333333333        0.6666666667        0.5000000000
C             0.6666666667        0.3333333333        0.5000000000
End final coordinates

     Writing output data file ./work/LiC499.save/

     Final scf calculation at the relaxed structure.
     The G-vectors are recalculated for the final unit cell
     Results may differ from those at the preceding step.

     bravais-lattice index     =            4
     lattice parameter (alat)  =       4.9900  a.u.
     unit-cell volume          =     754.7059 (a.u.)^3
     number of atoms/cell      =            2
     number of atomic types    =            1
     number of electrons       =         8.00
     number of Kohn-Sham states=            8
     kinetic-energy cutoff     =      50.0000  Ry
     charge density cutoff     =     200.0000  Ry
     scf convergence threshold =      1.0E-10
     mixing beta               =       0.7000
     number of iterations used =            8  plain     mixing
     press convergence thresh. =      1.0E-03
     Exchange-correlation= PBE
                           (   1   4   3   4   0   0   0)

     celldm(1)=   4.990000  celldm(2)=   0.000000  celldm(3)=   8.116232
     celldm(4)=   0.000000  celldm(5)=   0.000000  celldm(6)=   0.000000

     crystal axes: (cart. coord. in units of alat)
               a(1) = (   0.929599  -0.000000   0.000000 )
               a(2) = (  -0.464799   0.805056   0.000000 )
               a(3) = (   0.000000   0.000000   8.116232 )

     reciprocal axes: (cart. coord. in units 2 pi/alat)
               b(1) = (  1.075733  0.621075  0.000000 )
               b(2) = (  0.000000  1.242149  0.000000 )
               b(3) = (  0.000000  0.000000  0.123210 )

     PseudoPot. # 1 for C  read from file:
     /home/yhkim/qe-6.7/pseudo/ONCV1/1.2/C_ONCV_PBE-1.2.upf
     MD5 check sum: 1a5f83a7b1f58d24996abe00ed223ac6
     Pseudo is Norm-conserving, Zval =  4.0
     Generated using ONCVPSP code by D. R. Hamann
     Using radial grid of  602 points,  4 beta functions with:
                l(1) =   0
                l(2) =   0
                l(3) =   1
                l(4) =   1

     atomic species   valence    mass     pseudopotential
        C              4.00    12.01070     C ( 1.00)

     24 Sym. Ops., with inversion, found

   Cartesian axes

     site n.     atom                  positions (alat units)
         1           C   tau(   1) = (  -0.0000000   0.5367041   4.0581162  )
         2           C   tau(   2) = (   0.4647994   0.2683520   4.0581162  )

     number of k points=    27  Methfessel-Paxton smearing, width (Ry)=  0.0100
                       cart. coord. in units 2pi/alat
        k(    1) = (   0.0000000   0.0000000   0.0000000), wk =   0.0088889
        k(    2) = (   0.0000000   0.0828100   0.0000000), wk =   0.0533333
        k(    3) = (   0.0000000   0.1656199   0.0000000), wk =   0.0533333
        k(    4) = (   0.0000000   0.2484299   0.0000000), wk =   0.0533333
        k(    5) = (   0.0000000   0.3312399   0.0000000), wk =   0.0533333
        k(    6) = (   0.0000000   0.4140498   0.0000000), wk =   0.0533333
        k(    7) = (   0.0000000   0.4968598   0.0000000), wk =   0.0533333
        k(    8) = (   0.0000000   0.5796697   0.0000000), wk =   0.0533333
        k(    9) = (   0.0717155   0.1242149   0.0000000), wk =   0.0533333
        k(   10) = (   0.0717155   0.2070249   0.0000000), wk =   0.1066667
        k(   11) = (   0.0717155   0.2898349   0.0000000), wk =   0.1066667
        k(   12) = (   0.0717155   0.3726448   0.0000000), wk =   0.1066667
        k(   13) = (   0.0717155   0.4554548   0.0000000), wk =   0.1066667
        k(   14) = (   0.0717155   0.5382648   0.0000000), wk =   0.1066667
        k(   15) = (   0.0717155   0.6210747   0.0000000), wk =   0.0533333
        k(   16) = (   0.1434311   0.2484299   0.0000000), wk =   0.0533333
        k(   17) = (   0.1434311   0.3312399   0.0000000), wk =   0.1066667
        k(   18) = (   0.1434311   0.4140498   0.0000000), wk =   0.1066667
        k(   19) = (   0.1434311   0.4968598   0.0000000), wk =   0.1066667
        k(   20) = (   0.1434311   0.5796697   0.0000000), wk =   0.1066667
        k(   21) = (   0.2151466   0.3726448   0.0000000), wk =   0.0533333
        k(   22) = (   0.2151466   0.4554548   0.0000000), wk =   0.1066667
        k(   23) = (   0.2151466   0.5382648   0.0000000), wk =   0.1066667
        k(   24) = (   0.2151466   0.6210747   0.0000000), wk =   0.0533333
        k(   25) = (   0.2868621   0.4968598   0.0000000), wk =   0.0533333
        k(   26) = (   0.2868621   0.5796697   0.0000000), wk =   0.1066667
        k(   27) = (   0.3585777   0.6210747   0.0000000), wk =   0.0177778

     Initial potential from superposition of free atoms

     starting charge    7.98607, renormalised to    8.00000

     negative rho (up, down):  1.169E-04 0.000E+00
     Starting wfcs are random

     Self-consistent Calculation

[...]

     negative rho (up, down):  2.933E-06 0.000E+00

[...]

     iteration #  3     ecut=    50.00 Ry     beta= 0.70
     Davidson diagonalization with overlap
     c_bands:  1 eigenvalues not converged
     ethr =  2.92E-05,  avg # of iterations =  8.9

[...]

     total energy              =     -22.79074132 Ry
     estimated scf accuracy    <          8.2E-10 Ry

     iteration #  7     ecut=    50.00 Ry     beta= 0.70
     Davidson diagonalization with overlap
     ethr =  1.03E-11,  avg # of iterations =  3.3

     End of self-consistent calculation

[...]

          k = 0.3586 0.6211 0.0000 (  4485 PWs)   bands (ev):

   -16.8769 -16.8769 -14.9014  -4.2033  -4.2033   6.4405   8.7718   8.7718

     the Fermi energy is    -4.2033 ev

!    total energy              =     -22.79074132 Ry
     estimated scf accuracy    <          1.1E-11 Ry
     smearing contrib. (-TS)   =      -0.00005015 Ry
     internal energy E=F+TS    =     -22.79069117 Ry

     The total energy is F=E-TS. E is the sum of the following terms:
     one-electron contribution =    -390.34795539 Ry
     hartree contribution      =     195.80164384 Ry
     xc contribution           =      -7.02943059 Ry
     ewald contribution        =     178.78505098 Ry

     convergence has been achieved in   7 iterations

     Forces acting on atoms (cartesian axes, Ry/au):

     atom    1 type  1   force =    -0.00000000   -0.00000000    0.00000000
     atom    2 type  1   force =     0.00000000    0.00000000    0.00000000

     Total force =     0.000000     Total SCF correction =     0.000000

     Computing stress (Cartesian axis) and pressure

          total   stress  (Ry/bohr**3)                   (kbar)     P=       -9.94
  -0.00004694  -0.00000000   0.00000000           -6.91       -0.00        0.00
  -0.00000000  -0.00004694   0.00000000           -0.00       -6.91        0.00
   0.00000000   0.00000000  -0.00010888            0.00        0.00      -16.02

     Writing output data file ./work/LiC499.save/

     General routines

     Parallel routines

   This run was terminated on:  14:21:32  19Jan2024

   JOB DONE.