     Program PWSCF v.6.7MaX starts on 19Jan2024 at 15:49:35

     R & G space division:  proc/nbgrp/npool/nimage =      32
     Waiting for input...
     Reading input from standard input

     Current dimensions of program PWSCF are:
     Max number of different atomic species (ntypx) = 10
     Max number of k-points (npk) =  40000
     Max angular momentum in pseudopotentials (lmaxx) =  3
     Message from routine read_pp_mesh:
     mesh size missing, using the one in header

     Subspace diagonalization in iterative solution of the eigenvalue problem:
     a serial algorithm will be used

     bravais-lattice index     =            4
     lattice parameter (alat)  =       5.8000  a.u.
     unit-cell volume          =    1179.8903 (a.u.)^3
     number of atoms/cell      =            2
     number of atomic types    =            1
     number of electrons       =         8.00
     number of Kohn-Sham states=            8
     kinetic-energy cutoff     =      50.0000  Ry
     charge density cutoff     =     200.0000  Ry
     scf convergence threshold =      1.0E-08
     mixing beta               =       0.7000
     number of iterations used =            8  plain     mixing
     energy convergence thresh.=      1.0E-04
     force convergence thresh. =      1.0E-08
     press convergence thresh. =      1.0E-03
     Exchange-correlation= PBE
                           (   1   4   3   4   0   0   0)
     nstep                     =           50

     celldm(1)=   5.800000  celldm(2)=   0.000000  celldm(3)=   6.982759
     celldm(4)=   0.000000  celldm(5)=   0.000000  celldm(6)=   0.000000

     crystal axes: (cart. coord. in units of alat)
               a(1) = (   1.000000   0.000000   0.000000 )
               a(2) = (  -0.500000   0.866025   0.000000 )
               a(3) = (   0.000000   0.000000   6.982759 )

     reciprocal axes: (cart. coord. in units 2 pi/alat)
               b(1) = (  1.000000  0.577350  0.000000 )
               b(2) = (  0.000000  1.154701  0.000000 )
               b(3) = (  0.000000  0.000000  0.143210 )

     PseudoPot. # 1 for C  read from file:
     /home/yhkim/qe-6.7/pseudo/ONCV1/1.2/C_ONCV_PBE-1.2.upf
     MD5 check sum: 1a5f83a7b1f58d24996abe00ed223ac6
     Pseudo is Norm-conserving, Zval =  4.0
     Generated using ONCVPSP code by D. R. Hamann
     Using radial grid of  602 points,  4 beta functions with:
                l(1) =   0
                l(2) =   0
                l(3) =   1
                l(4) =   1

     atomic species   valence    mass     pseudopotential
        C              4.00    12.01070     C ( 1.00)

     24 Sym. Ops., with inversion, found

   Cartesian axes

     site n.     atom                  positions (alat units)
         1           C   tau(   1) = (  -0.0000000   0.5773503   3.4913793  )
         2           C   tau(   2) = (   0.5000000   0.2886751   3.4913793  )

     number of k points=    27  Methfessel-Paxton smearing, width (Ry)=  0.0100
                       cart. coord. in units 2pi/alat
        k(    1) = (   0.0000000   0.0000000   0.0000000), wk =   0.0088889
        k(    2) = (   0.0000000   0.0769800   0.0000000), wk =   0.0533333
        k(    3) = (   0.0000000   0.1539601   0.0000000), wk =   0.0533333
        k(    4) = (   0.0000000   0.2309401   0.0000000), wk =   0.0533333
        k(    5) = (   0.0000000   0.3079201   0.0000000), wk =   0.0533333
        k(    6) = (   0.0000000   0.3849002   0.0000000), wk =   0.0533333
        k(    7) = (   0.0000000   0.4618802   0.0000000), wk =   0.0533333
        k(    8) = (   0.0000000   0.5388603   0.0000000), wk =   0.0533333
        k(    9) = (   0.0666667   0.1154701   0.0000000), wk =   0.0533333
        k(   10) = (   0.0666667   0.1924501   0.0000000), wk =   0.1066667
        k(   11) = (   0.0666667   0.2694301   0.0000000), wk =   0.1066667
        k(   12) = (   0.0666667   0.3464102   0.0000000), wk =   0.1066667
        k(   13) = (   0.0666667   0.4233902   0.0000000), wk =   0.1066667
        k(   14) = (   0.0666667   0.5003702   0.0000000), wk =   0.1066667
        k(   15) = (   0.0666667   0.5773503   0.0000000), wk =   0.0533333
        k(   16) = (   0.1333333   0.2309401   0.0000000), wk =   0.0533333
        k(   17) = (   0.1333333   0.3079201   0.0000000), wk =   0.1066667
        k(   18) = (   0.1333333   0.3849002   0.0000000), wk =   0.1066667
        k(   19) = (   0.1333333   0.4618802   0.0000000), wk =   0.1066667
        k(   20) = (   0.1333333   0.5388603   0.0000000), wk =   0.1066667
        k(   21) = (   0.2000000   0.3464102   0.0000000), wk =   0.0533333
        k(   22) = (   0.2000000   0.4233902   0.0000000), wk =   0.1066667
        k(   23) = (   0.2000000   0.5003702   0.0000000), wk =   0.1066667
        k(   24) = (   0.2000000   0.5773503   0.0000000), wk =   0.0533333
        k(   25) = (   0.2666667   0.4618802   0.0000000), wk =   0.0533333
        k(   26) = (   0.2666667   0.5388603   0.0000000), wk =   0.1066667
        k(   27) = (   0.3333333   0.5773503   0.0000000), wk =   0.0177778

     Initial potential from superposition of free atoms

     starting charge    7.98607, renormalised to    8.00000

     negative rho (up, down):  1.477E-04 0.000E+00
     Starting wfcs are random

     Self-consistent Calculation

     iteration #  1     ecut=    50.00 Ry     beta= 0.70
     Davidson diagonalization with overlap
     ethr =  1.00E-02,  avg # of iterations = 11.9

     Threshold (ethr) on eigenvalues was too large:
     Diagonalizing with lowered threshold

     Davidson diagonalization with overlap
     ethr =  2.39E-04,  avg # of iterations =  7.8

     negative rho (up, down):  2.240E-05 0.000E+00

     total energy              =     -22.46098429 Ry
     estimated scf accuracy    <       0.02050016 Ry

[...]

     iteration #  3     ecut=    50.00 Ry     beta= 0.70
     Davidson diagonalization with overlap
     c_bands:  2 eigenvalues not converged
     c_bands:  3 eigenvalues not converged
     c_bands:  1 eigenvalues not converged
     c_bands:  2 eigenvalues not converged
     ethr =  1.76E-05,  avg # of iterations =  7.3

[...]

     End of self-consistent calculation

          k = 0.0000 0.0000 0.0000 (  7159 PWs)   bands (ev):

   -20.5463  -9.7110  -8.4196  -8.4196  -4.5755  -0.8326  -0.7558  -0.7557

[...]

     the Fermi energy is    -5.6172 ev

!    total energy              =     -22.46202696 Ry
     estimated scf accuracy    <          5.2E-11 Ry
     smearing contrib. (-TS)   =      -0.00005015 Ry
     internal energy E=F+TS    =     -22.46197681 Ry

     The total energy is F=E-TS. E is the sum of the following terms:
     one-electron contribution =    -249.17031655 Ry
     hartree contribution      =     124.93280471 Ry
     xc contribution           =      -6.22448664 Ry
     ewald contribution        =     108.00002168 Ry

     convergence has been achieved in   6 iterations

     Forces acting on atoms (cartesian axes, Ry/au):

     atom    1 type  1   force =     0.00000000    0.00000000    0.00000000
     atom    2 type  1   force =    -0.00000000   -0.00000000    0.00000000

     Total force =     0.000000     Total SCF correction =     0.000000

     Computing stress (Cartesian axis) and pressure

          total   stress  (Ry/bohr**3)                   (kbar)     P=     -106.61
  -0.00105627  -0.00000000  -0.00000000         -155.38       -0.00       -0.00
  -0.00000000  -0.00105627   0.00000000           -0.00     -155.38        0.00
   0.00000000  -0.00000000  -0.00006163            0.00       -0.00       -9.07

     BFGS Geometry Optimization
     Energy error            =      0.0E+00
     Gradient error          =      1.7E-26
     Cell gradient error     =      1.1E-03

     number of scf cycles    =   1
     number of bfgs steps    =   0

     enthalpy new            =     -22.4620269563 Ry

     new trust radius        =       0.1814125527 bohr
     new conv_thr            =       0.0000000100 Ry

     new unit-cell volume =   1118.39873 a.u.^3 (   165.72959 Ang^3 )
     density =      0.24068 g/cm^3

CELL_PARAMETERS (alat=  5.80000000)
   0.973593155  -0.000000000   0.000000000
  -0.486796577   0.843156405   0.000000000
   0.000000000   0.000000000   6.982758621

ATOMIC_POSITIONS (crystal)
C             0.3333333333        0.6666666667        0.5000000000
C             0.6666666667        0.3333333333        0.5000000000

     Writing output data file ./work/LiC580.save/
     NEW-OLD atomic charge density approx. for the potential

     negative rho (up, down):  1.110E-05 0.000E+00
     extrapolated charge    7.56091, renormalised to    8.00000

[...]

     Energy error            =      6.5E-02
     Gradient error          =      0.0E+00
     Cell gradient error     =      1.1E-03

[...]

     enthalpy old            =     -22.4620269563 Ry
     enthalpy new            =     -22.5273172455 Ry

     CASE: enthalpy_new < enthalpy_old

     WARNING: bfgs curvature condition failed, Theta= 0.816
     new trust radius        =       0.1995538079 bohr
     new conv_thr            =            1.0E-10 Ry

[...]

     Writing output data file ./work/LiC580.save/
     NEW-OLD atomic charge density approx. for the potential

     negative rho (up, down):  1.618E-08 0.000E+00
     extrapolated charge    7.99333, renormalised to    8.00000

[...]

     small trust_radius: resetting bfgs history

[...]

     Writing output data file ./work/LiC580.save/
     NEW-OLD atomic charge density approx. for the potential
     extrapolated charge    8.00003, renormalised to    8.00000

[...]

     Energy error            =      2.6E-10
     Gradient error          =      0.0E+00
     Cell gradient error     =      5.8E-08

     number of scf cycles    =  10
     number of bfgs steps    =   9

     enthalpy old            =     -22.8043613333 Ry
     enthalpy new            =     -22.8043613335 Ry

     CASE: enthalpy_new < enthalpy_old

     Message from routine bfgs:
     history already reset at previous step: stopping
     small trust_radius: resetting bfgs history

     new trust radius        =       0.0000079585 bohr
     new conv_thr            =            1.0E-10 Ry

     new unit-cell volume =    759.06871 a.u.^3 (   112.48238 Ang^3 )
     density =      0.35462 g/cm^3

[...]

ATOMIC_POSITIONS (crystal)
C             0.3333333333        0.6666666667        0.5000000000
C             0.6666666667        0.3333333333        0.5000000000

     Writing output data file ./work/LiC580.save/
     NEW-OLD atomic charge density approx. for the potential
     extrapolated charge    8.00002, renormalised to    8.00000

[...]

     Threshold (ethr) on eigenvalues was too large:
     Diagonalizing with lowered threshold

     Davidson diagonalization with overlap
     ethr =  3.13E-12,  avg # of iterations =  1.9

[...]

     Message from routine bfgs:
     history already reset at previous step: stopping
     Energy error            =      7.4E-11
     Gradient error          =      0.0E+00
     Cell gradient error     =      3.9E-08

     bfgs converged in  11 scf cycles and  10 bfgs steps
     (criteria: energy <  1.0E-04 Ry, force <  1.0E-08Ry/Bohr, cell <  1.0E-03kbar)

     End of BFGS Geometry Optimization

     Final enthalpy =     -22.8043613336 Ry

     File ./work/LiC580.bfgs deleted, as requested
Begin final coordinates
     new unit-cell volume =    759.06871 a.u.^3 (   112.48238 Ang^3 )
     density =      0.35462 g/cm^3

CELL_PARAMETERS (alat=  5.80000000)
   0.802083762  -0.000000000   0.000000000
  -0.401041881   0.694624914   0.000000000
   0.000000000   0.000000000   6.982758621

ATOMIC_POSITIONS (crystal)
C             0.3333333333        0.6666666667        0.5000000000
C             0.6666666667        0.3333333333        0.5000000000
End final coordinates

     Writing output data file ./work/LiC580.save/

     Final scf calculation at the relaxed structure.
     The G-vectors are recalculated for the final unit cell
     Results may differ from those at the preceding step.

     bravais-lattice index     =            4
     lattice parameter (alat)  =       5.8000  a.u.
     unit-cell volume          =     759.0687 (a.u.)^3
     number of atoms/cell      =            2
     number of atomic types    =            1
     number of electrons       =         8.00
     number of Kohn-Sham states=            8
     kinetic-energy cutoff     =      50.0000  Ry
     charge density cutoff     =     200.0000  Ry
     scf convergence threshold =      1.0E-10
     mixing beta               =       0.7000
     number of iterations used =            8  plain     mixing
     press convergence thresh. =      1.0E-03
     Exchange-correlation= PBE
                           (   1   4   3   4   0   0   0)

     celldm(1)=   5.800000  celldm(2)=   0.000000  celldm(3)=   6.982759
     celldm(4)=   0.000000  celldm(5)=   0.000000  celldm(6)=   0.000000

     crystal axes: (cart. coord. in units of alat)
               a(1) = (   0.802084  -0.000000   0.000000 )
               a(2) = (  -0.401042   0.694625   0.000000 )
               a(3) = (   0.000000   0.000000   6.982759 )

     reciprocal axes: (cart. coord. in units 2 pi/alat)
               b(1) = (  1.246753  0.719813  0.000000 )
               b(2) = (  0.000000  1.439626  0.000000 )
               b(3) = (  0.000000  0.000000  0.143210 )

     PseudoPot. # 1 for C  read from file:
     /home/yhkim/qe-6.7/pseudo/ONCV1/1.2/C_ONCV_PBE-1.2.upf
     MD5 check sum: 1a5f83a7b1f58d24996abe00ed223ac6
     Pseudo is Norm-conserving, Zval =  4.0
     Generated using ONCVPSP code by D. R. Hamann
     Using radial grid of  602 points,  4 beta functions with:
                l(1) =   0
                l(2) =   0
                l(3) =   1
                l(4) =   1

     atomic species   valence    mass     pseudopotential
        C              4.00    12.01070     C ( 1.00)

     24 Sym. Ops., with inversion, found

   Cartesian axes

     site n.     atom                  positions (alat units)
         1           C   tau(   1) = (  -0.0000000   0.4630833   3.4913793  )
         2           C   tau(   2) = (   0.4010419   0.2315416   3.4913793  )

     number of k points=    27  Methfessel-Paxton smearing, width (Ry)=  0.0100
                       cart. coord. in units 2pi/alat
        k(    1) = (   0.0000000   0.0000000   0.0000000), wk =   0.0088889
        k(    2) = (   0.0000000   0.0959751   0.0000000), wk =   0.0533333
        k(    3) = (   0.0000000   0.1919501   0.0000000), wk =   0.0533333
        k(    4) = (   0.0000000   0.2879252   0.0000000), wk =   0.0533333
        k(    5) = (   0.0000000   0.3839002   0.0000000), wk =   0.0533333
        k(    6) = (   0.0000000   0.4798753   0.0000000), wk =   0.0533333
        k(    7) = (   0.0000000   0.5758504   0.0000000), wk =   0.0533333
        k(    8) = (   0.0000000   0.6718254   0.0000000), wk =   0.0533333
        k(    9) = (   0.0831168   0.1439626   0.0000000), wk =   0.0533333
        k(   10) = (   0.0831168   0.2399376   0.0000000), wk =   0.1066667
        k(   11) = (   0.0831168   0.3359127   0.0000000), wk =   0.1066667
        k(   12) = (   0.0831168   0.4318878   0.0000000), wk =   0.1066667
        k(   13) = (   0.0831168   0.5278628   0.0000000), wk =   0.1066667
        k(   14) = (   0.0831168   0.6238379   0.0000000), wk =   0.1066667
        k(   15) = (   0.0831168   0.7198129   0.0000000), wk =   0.0533333
        k(   16) = (   0.1662337   0.2879252   0.0000000), wk =   0.0533333
        k(   17) = (   0.1662337   0.3839002   0.0000000), wk =   0.1066667
        k(   18) = (   0.1662337   0.4798753   0.0000000), wk =   0.1066667
        k(   19) = (   0.1662337   0.5758504   0.0000000), wk =   0.1066667
        k(   20) = (   0.1662337   0.6718254   0.0000000), wk =   0.1066667
        k(   21) = (   0.2493505   0.4318878   0.0000000), wk =   0.0533333
        k(   22) = (   0.2493505   0.5278628   0.0000000), wk =   0.1066667
        k(   23) = (   0.2493505   0.6238379   0.0000000), wk =   0.1066667
        k(   24) = (   0.2493505   0.7198129   0.0000000), wk =   0.0533333
        k(   25) = (   0.3324674   0.5758504   0.0000000), wk =   0.0533333
        k(   26) = (   0.3324674   0.6718254   0.0000000), wk =   0.1066667
        k(   27) = (   0.4155842   0.7198129   0.0000000), wk =   0.0177778

     Initial potential from superposition of free atoms

     starting charge    7.98607, renormalised to    8.00000

     negative rho (up, down):  1.131E-04 0.000E+00
     Starting wfcs are random

     Self-consistent Calculation

[...]

     negative rho (up, down):  2.691E-06 0.000E+00

[...]

     iteration #  3     ecut=    50.00 Ry     beta= 0.70
     Davidson diagonalization with overlap
     c_bands:  1 eigenvalues not converged
     ethr =  2.90E-05,  avg # of iterations =  9.1

[...]

     total energy              =     -22.79099130 Ry
     estimated scf accuracy    <          1.4E-09 Ry

     iteration #  7     ecut=    50.00 Ry     beta= 0.70
     Davidson diagonalization with overlap
     ethr =  1.75E-11,  avg # of iterations =  2.9

     End of self-consistent calculation

[...]

          k = 0.4156 0.7198 0.0000 (  4521 PWs)   bands (ev):

   -16.8765 -16.8765 -14.8623  -4.2283  -4.2283   6.4024   8.6875   8.6876

     the Fermi energy is    -4.2283 ev

!    total energy              =     -22.79099131 Ry
     estimated scf accuracy    <          1.2E-11 Ry
     smearing contrib. (-TS)   =      -0.00005015 Ry
     internal energy E=F+TS    =     -22.79094116 Ry

     The total energy is F=E-TS. E is the sum of the following terms:
     one-electron contribution =    -388.07854928 Ry
     hartree contribution      =     194.66107442 Ry
     xc contribution           =      -7.01700796 Ry
     ewald contribution        =     177.64354166 Ry

     convergence has been achieved in   7 iterations

     Forces acting on atoms (cartesian axes, Ry/au):

     atom    1 type  1   force =     0.00000000    0.00000000    0.00000000
     atom    2 type  1   force =    -0.00000000   -0.00000000    0.00000000

     Total force =     0.000000     Total SCF correction =     0.000000

     Computing stress (Cartesian axis) and pressure

          total   stress  (Ry/bohr**3)                   (kbar)     P=      -13.54
  -0.00008403  -0.00000000  -0.00000000          -12.36       -0.00       -0.00
  -0.00000000  -0.00008403  -0.00000000           -0.00      -12.36       -0.00
   0.00000000   0.00000000  -0.00010806            0.00        0.00      -15.90

     Writing output data file ./work/LiC580.save/

     General routines

     Parallel routines

   This run was terminated on:  15:50:10  19Jan2024

   JOB DONE.