     Program PWSCF v.6.7MaX starts on 19Jan2024 at 15:48:47

     R & G space division:  proc/nbgrp/npool/nimage =      32
     Waiting for input...
     Reading input from standard input

     Current dimensions of program PWSCF are:
     Max number of different atomic species (ntypx) = 10
     Max number of k-points (npk) =  40000
     Max angular momentum in pseudopotentials (lmaxx) =  3
     Message from routine read_pp_mesh:
     mesh size missing, using the one in header

     Subspace diagonalization in iterative solution of the eigenvalue problem:
     a serial algorithm will be used

     bravais-lattice index     =            4
     lattice parameter (alat)  =       5.6000  a.u.
     unit-cell volume          =    1099.9215 (a.u.)^3
     number of atoms/cell      =            2
     number of atomic types    =            1
     number of electrons       =         8.00
     number of Kohn-Sham states=            8
     kinetic-energy cutoff     =      50.0000  Ry
     charge density cutoff     =     200.0000  Ry
     scf convergence threshold =      1.0E-08
     mixing beta               =       0.7000
     number of iterations used =            8  plain     mixing
     energy convergence thresh.=      1.0E-04
     force convergence thresh. =      1.0E-08
     press convergence thresh. =      1.0E-03
     Exchange-correlation= PBE
                           (   1   4   3   4   0   0   0)
     nstep                     =           50

     celldm(1)=   5.600000  celldm(2)=   0.000000  celldm(3)=   7.232143
     celldm(4)=   0.000000  celldm(5)=   0.000000  celldm(6)=   0.000000

     crystal axes: (cart. coord. in units of alat)
               a(1) = (   1.000000   0.000000   0.000000 )
               a(2) = (  -0.500000   0.866025   0.000000 )
               a(3) = (   0.000000   0.000000   7.232143 )

     reciprocal axes: (cart. coord. in units 2 pi/alat)
               b(1) = (  1.000000  0.577350  0.000000 )
               b(2) = (  0.000000  1.154701  0.000000 )
               b(3) = (  0.000000  0.000000  0.138272 )

     PseudoPot. # 1 for C  read from file:
     /home/yhkim/qe-6.7/pseudo/ONCV1/1.2/C_ONCV_PBE-1.2.upf
     MD5 check sum: 1a5f83a7b1f58d24996abe00ed223ac6
     Pseudo is Norm-conserving, Zval =  4.0
     Generated using ONCVPSP code by D. R. Hamann
     Using radial grid of  602 points,  4 beta functions with:
                l(1) =   0
                l(2) =   0
                l(3) =   1
                l(4) =   1

     atomic species   valence    mass     pseudopotential
        C              4.00    12.01070     C ( 1.00)

     24 Sym. Ops., with inversion, found

   Cartesian axes

     site n.     atom                  positions (alat units)
         1           C   tau(   1) = (  -0.0000000   0.5773503   3.6160714  )
         2           C   tau(   2) = (   0.5000000   0.2886751   3.6160714  )

     number of k points=    27  Methfessel-Paxton smearing, width (Ry)=  0.0100
                       cart. coord. in units 2pi/alat
        k(    1) = (   0.0000000   0.0000000   0.0000000), wk =   0.0088889
        k(    2) = (   0.0000000   0.0769800   0.0000000), wk =   0.0533333
        k(    3) = (   0.0000000   0.1539601   0.0000000), wk =   0.0533333
        k(    4) = (   0.0000000   0.2309401   0.0000000), wk =   0.0533333
        k(    5) = (   0.0000000   0.3079201   0.0000000), wk =   0.0533333
        k(    6) = (   0.0000000   0.3849002   0.0000000), wk =   0.0533333
        k(    7) = (   0.0000000   0.4618802   0.0000000), wk =   0.0533333
        k(    8) = (   0.0000000   0.5388603   0.0000000), wk =   0.0533333
        k(    9) = (   0.0666667   0.1154701   0.0000000), wk =   0.0533333
        k(   10) = (   0.0666667   0.1924501   0.0000000), wk =   0.1066667
        k(   11) = (   0.0666667   0.2694301   0.0000000), wk =   0.1066667
        k(   12) = (   0.0666667   0.3464102   0.0000000), wk =   0.1066667
        k(   13) = (   0.0666667   0.4233902   0.0000000), wk =   0.1066667
        k(   14) = (   0.0666667   0.5003702   0.0000000), wk =   0.1066667
        k(   15) = (   0.0666667   0.5773503   0.0000000), wk =   0.0533333
        k(   16) = (   0.1333333   0.2309401   0.0000000), wk =   0.0533333
        k(   17) = (   0.1333333   0.3079201   0.0000000), wk =   0.1066667
        k(   18) = (   0.1333333   0.3849002   0.0000000), wk =   0.1066667
        k(   19) = (   0.1333333   0.4618802   0.0000000), wk =   0.1066667
        k(   20) = (   0.1333333   0.5388603   0.0000000), wk =   0.1066667
        k(   21) = (   0.2000000   0.3464102   0.0000000), wk =   0.0533333
        k(   22) = (   0.2000000   0.4233902   0.0000000), wk =   0.1066667
        k(   23) = (   0.2000000   0.5003702   0.0000000), wk =   0.1066667
        k(   24) = (   0.2000000   0.5773503   0.0000000), wk =   0.0533333
        k(   25) = (   0.2666667   0.4618802   0.0000000), wk =   0.0533333
        k(   26) = (   0.2666667   0.5388603   0.0000000), wk =   0.1066667
        k(   27) = (   0.3333333   0.5773503   0.0000000), wk =   0.0177778

     Initial potential from superposition of free atoms

     starting charge    7.98607, renormalised to    8.00000

     negative rho (up, down):  1.448E-04 0.000E+00
     Starting wfcs are random

     Self-consistent Calculation

     iteration #  1     ecut=    50.00 Ry     beta= 0.70
     Davidson diagonalization with overlap
     ethr =  1.00E-02,  avg # of iterations = 12.1

     Threshold (ethr) on eigenvalues was too large:
     Diagonalizing with lowered threshold

     Davidson diagonalization with overlap
     ethr =  3.21E-04,  avg # of iterations =  5.6

     negative rho (up, down):  2.220E-05 0.000E+00

     total energy              =     -22.54006900 Ry
     estimated scf accuracy    <       0.02892375 Ry

[...]

     iteration #  4     ecut=    50.00 Ry     beta= 0.70
     Davidson diagonalization with overlap
     c_bands:  1 eigenvalues not converged
     ethr =  5.03E-07,  avg # of iterations =  8.7

[...]

     End of self-consistent calculation

          k = 0.0000 0.0000 0.0000 (  6607 PWs)   bands (ev):

   -21.0386 -10.0135  -8.3494  -8.3494  -3.0188  -0.8567  -0.1933  -0.1394

[...]

     the Fermi energy is    -5.4609 ev

!    total energy              =     -22.54219702 Ry
     estimated scf accuracy    <          4.6E-09 Ry
     smearing contrib. (-TS)   =      -0.00005015 Ry
     internal energy E=F+TS    =     -22.54214687 Ry

     The total energy is F=E-TS. E is the sum of the following terms:
     one-electron contribution =    -267.22491656 Ry
     hartree contribution      =     133.98473601 Ry
     xc contribution           =      -6.32865129 Ry
     ewald contribution        =     117.02668497 Ry

     convergence has been achieved in   5 iterations

     Forces acting on atoms (cartesian axes, Ry/au):

     atom    1 type  1   force =     0.00000000    0.00000000    0.00000000
     atom    2 type  1   force =     0.00000000    0.00000000    0.00000000

     Total force =     0.000000     Total SCF correction =     0.000000

     Computing stress (Cartesian axis) and pressure

          total   stress  (Ry/bohr**3)                   (kbar)     P=     -109.09
  -0.00107952   0.00000000  -0.00000000         -158.80        0.00       -0.00
   0.00000000  -0.00107952   0.00000000            0.00     -158.80        0.00
  -0.00000000   0.00000000  -0.00006562           -0.00        0.00       -9.65

     BFGS Geometry Optimization
     Energy error            =      0.0E+00
     Gradient error          =      0.0E+00
     Cell gradient error     =      1.1E-03

     number of scf cycles    =   1
     number of bfgs steps    =   0

     enthalpy new            =     -22.5421970196 Ry

     new trust radius        =       0.1790117626 bohr
     new conv_thr            =       0.0000000100 Ry

     new unit-cell volume =   1041.35331 a.u.^3 (   154.31264 Ang^3 )
     density =      0.25849 g/cm^3

CELL_PARAMETERS (alat=  5.60000000)
   0.973011999   0.000000000   0.000000000
  -0.486505999   0.842653109   0.000000000
   0.000000000   0.000000000   7.232142857

ATOMIC_POSITIONS (crystal)
C             0.3333333333        0.6666666667        0.5000000000
C             0.6666666667        0.3333333333        0.5000000000

     Writing output data file ./work/LiC560.save/
     NEW-OLD atomic charge density approx. for the potential

     negative rho (up, down):  9.965E-06 0.000E+00
     extrapolated charge    7.55084, renormalised to    8.00000

[...]

          k =-0.0000 0.0791 0.0000 (  6585 PWs)   bands (ev):

[...]

          k =-0.0000 0.5538 0.0000 (  6588 PWs)   bands (ev):

[...]

     Energy error            =      6.3E-02
     Gradient error          =      0.0E+00
     Cell gradient error     =      1.0E-03

[...]

     enthalpy old            =     -22.5421970196 Ry
     enthalpy new            =     -22.6047122007 Ry

     CASE: enthalpy_new < enthalpy_old

     WARNING: bfgs curvature condition failed, Theta= 0.845
     new trust radius        =       0.1969129389 bohr
     new conv_thr            =            1.0E-10 Ry

[...]

     Writing output data file ./work/LiC560.save/
     NEW-OLD atomic charge density approx. for the potential

     negative rho (up, down):  7.687E-08 0.000E+00
     extrapolated charge    8.01067, renormalised to    8.00000

[...]

     small trust_radius: resetting bfgs history

[...]

     Writing output data file ./work/LiC560.save/
     NEW-OLD atomic charge density approx. for the potential
     extrapolated charge    7.99997, renormalised to    8.00000

[...]

     Energy error            =      1.3E-10
     Gradient error          =      1.0E-26
     Cell gradient error     =      4.0E-08

     number of scf cycles    =   8
     number of bfgs steps    =   7

     enthalpy old            =     -22.8038482113 Ry
     enthalpy new            =     -22.8038482115 Ry

     CASE: enthalpy_new < enthalpy_old

     Message from routine bfgs:
     history already reset at previous step: stopping
     small trust_radius: resetting bfgs history

     new trust radius        =       0.0000054834 bohr
     new conv_thr            =            1.0E-10 Ry

     new unit-cell volume =    758.52953 a.u.^3 (   112.40248 Ang^3 )
     density =      0.35487 g/cm^3

[...]

ATOMIC_POSITIONS (crystal)
C             0.3333333333        0.6666666667        0.5000000000
C             0.6666666667        0.3333333333        0.5000000000

     Writing output data file ./work/LiC560.save/
     NEW-OLD atomic charge density approx. for the potential
     extrapolated charge    7.99998, renormalised to    8.00000

[...]

     Threshold (ethr) on eigenvalues was too large:
     Diagonalizing with lowered threshold

     Davidson diagonalization with overlap
     ethr =  1.73E-12,  avg # of iterations =  1.7

[...]

     Message from routine bfgs:
     history already reset at previous step: stopping
     Energy error            =      5.2E-11
     Gradient error          =      1.0E-26
     Cell gradient error     =      2.5E-08

     bfgs converged in   9 scf cycles and   8 bfgs steps
     (criteria: energy <  1.0E-04 Ry, force <  1.0E-08Ry/Bohr, cell <  1.0E-03kbar)

     End of BFGS Geometry Optimization

     Final enthalpy =     -22.8038482115 Ry

     File ./work/LiC560.bfgs deleted, as requested
Begin final coordinates
     new unit-cell volume =    758.52953 a.u.^3 (   112.40248 Ang^3 )
     density =      0.35487 g/cm^3

CELL_PARAMETERS (alat=  5.60000000)
   0.830434517  -0.000000000   0.000000000
  -0.415217258   0.719177388   0.000000000
   0.000000000   0.000000000   7.232142857

ATOMIC_POSITIONS (crystal)
C             0.3333333333        0.6666666667        0.5000000000
C             0.6666666667        0.3333333333        0.5000000000
End final coordinates

     Writing output data file ./work/LiC560.save/

     Final scf calculation at the relaxed structure.
     The G-vectors are recalculated for the final unit cell
     Results may differ from those at the preceding step.

     bravais-lattice index     =            4
     lattice parameter (alat)  =       5.6000  a.u.
     unit-cell volume          =     758.5295 (a.u.)^3
     number of atoms/cell      =            2
     number of atomic types    =            1
     number of electrons       =         8.00
     number of Kohn-Sham states=            8
     kinetic-energy cutoff     =      50.0000  Ry
     charge density cutoff     =     200.0000  Ry
     scf convergence threshold =      1.0E-10
     mixing beta               =       0.7000
     number of iterations used =            8  plain     mixing
     press convergence thresh. =      1.0E-03
     Exchange-correlation= PBE
                           (   1   4   3   4   0   0   0)

     celldm(1)=   5.600000  celldm(2)=   0.000000  celldm(3)=   7.232143
     celldm(4)=   0.000000  celldm(5)=   0.000000  celldm(6)=   0.000000

     crystal axes: (cart. coord. in units of alat)
               a(1) = (   0.830435  -0.000000   0.000000 )
               a(2) = (  -0.415217   0.719177   0.000000 )
               a(3) = (   0.000000   0.000000   7.232143 )

     reciprocal axes: (cart. coord. in units 2 pi/alat)
               b(1) = (  1.204189  0.695239  0.000000 )
               b(2) = (  0.000000  1.390478  0.000000 )
               b(3) = (  0.000000  0.000000  0.138272 )

     PseudoPot. # 1 for C  read from file:
     /home/yhkim/qe-6.7/pseudo/ONCV1/1.2/C_ONCV_PBE-1.2.upf
     MD5 check sum: 1a5f83a7b1f58d24996abe00ed223ac6
     Pseudo is Norm-conserving, Zval =  4.0
     Generated using ONCVPSP code by D. R. Hamann
     Using radial grid of  602 points,  4 beta functions with:
                l(1) =   0
                l(2) =   0
                l(3) =   1
                l(4) =   1

     atomic species   valence    mass     pseudopotential
        C              4.00    12.01070     C ( 1.00)

     24 Sym. Ops., with inversion, found

   Cartesian axes

     site n.     atom                  positions (alat units)
         1           C   tau(   1) = (  -0.0000000   0.4794516   3.6160714  )
         2           C   tau(   2) = (   0.4152173   0.2397258   3.6160714  )

     number of k points=    27  Methfessel-Paxton smearing, width (Ry)=  0.0100
                       cart. coord. in units 2pi/alat
        k(    1) = (   0.0000000   0.0000000   0.0000000), wk =   0.0088889
        k(    2) = (   0.0000000   0.0926985   0.0000000), wk =   0.0533333
        k(    3) = (   0.0000000   0.1853970   0.0000000), wk =   0.0533333
        k(    4) = (   0.0000000   0.2780955   0.0000000), wk =   0.0533333
        k(    5) = (   0.0000000   0.3707940   0.0000000), wk =   0.0533333
        k(    6) = (   0.0000000   0.4634925   0.0000000), wk =   0.0533333
        k(    7) = (   0.0000000   0.5561910   0.0000000), wk =   0.0533333
        k(    8) = (   0.0000000   0.6488895   0.0000000), wk =   0.0533333
        k(    9) = (   0.0802793   0.1390478   0.0000000), wk =   0.0533333
        k(   10) = (   0.0802793   0.2317463   0.0000000), wk =   0.1066667
        k(   11) = (   0.0802793   0.3244448   0.0000000), wk =   0.1066667
        k(   12) = (   0.0802793   0.4171433   0.0000000), wk =   0.1066667
        k(   13) = (   0.0802793   0.5098418   0.0000000), wk =   0.1066667
        k(   14) = (   0.0802793   0.6025403   0.0000000), wk =   0.1066667
        k(   15) = (   0.0802793   0.6952388   0.0000000), wk =   0.0533333
        k(   16) = (   0.1605585   0.2780955   0.0000000), wk =   0.0533333
        k(   17) = (   0.1605585   0.3707940   0.0000000), wk =   0.1066667
        k(   18) = (   0.1605585   0.4634925   0.0000000), wk =   0.1066667
        k(   19) = (   0.1605585   0.5561910   0.0000000), wk =   0.1066667
        k(   20) = (   0.1605585   0.6488895   0.0000000), wk =   0.1066667
        k(   21) = (   0.2408378   0.4171433   0.0000000), wk =   0.0533333
        k(   22) = (   0.2408378   0.5098418   0.0000000), wk =   0.1066667
        k(   23) = (   0.2408378   0.6025403   0.0000000), wk =   0.1066667
        k(   24) = (   0.2408378   0.6952388   0.0000000), wk =   0.0533333
        k(   25) = (   0.3211170   0.5561910   0.0000000), wk =   0.0533333
        k(   26) = (   0.3211170   0.6488895   0.0000000), wk =   0.1066667
        k(   27) = (   0.4013963   0.6952388   0.0000000), wk =   0.0177778

     Initial potential from superposition of free atoms

     starting charge    7.98607, renormalised to    8.00000

     negative rho (up, down):  1.138E-04 0.000E+00
     Starting wfcs are random

     Self-consistent Calculation

     iteration #  1     ecut=    50.00 Ry     beta= 0.70
     Davidson diagonalization with overlap
     c_bands:  2 eigenvalues not converged
     c_bands:  2 eigenvalues not converged
     c_bands:  3 eigenvalues not converged
     c_bands:  4 eigenvalues not converged
     c_bands:  4 eigenvalues not converged
     c_bands:  4 eigenvalues not converged
     c_bands:  2 eigenvalues not converged
     c_bands:  2 eigenvalues not converged
     c_bands:  3 eigenvalues not converged
     c_bands:  4 eigenvalues not converged
     c_bands:  4 eigenvalues not converged
     c_bands:  4 eigenvalues not converged
     c_bands:  3 eigenvalues not converged
     c_bands:  2 eigenvalues not converged
     c_bands:  2 eigenvalues not converged
     c_bands:  5 eigenvalues not converged
     c_bands:  4 eigenvalues not converged
     c_bands:  4 eigenvalues not converged
     c_bands:  3 eigenvalues not converged
     c_bands:  3 eigenvalues not converged
     c_bands:  4 eigenvalues not converged
     c_bands:  3 eigenvalues not converged
     c_bands:  4 eigenvalues not converged
     c_bands:  3 eigenvalues not converged
     c_bands:  3 eigenvalues not converged
     c_bands:  3 eigenvalues not converged
     c_bands:  3 eigenvalues not converged
     ethr =  1.00E-06,  avg # of iterations = 23.0

[...]

     negative rho (up, down):  2.837E-06 0.000E+00

[...]

     total energy              =     -22.79096605 Ry
     estimated scf accuracy    <          7.4E-10 Ry

     iteration #  7     ecut=    50.00 Ry     beta= 0.70
     Davidson diagonalization with overlap
     ethr =  9.23E-12,  avg # of iterations =  3.1

     End of self-consistent calculation

[...]

          k = 0.4014 0.6952 0.0000 (  4521 PWs)   bands (ev):

   -16.8767 -16.8767 -14.8673  -4.2254  -4.2254   6.4070   8.6978   8.6978

     the Fermi energy is    -4.2254 ev

!    total energy              =     -22.79096605 Ry
     estimated scf accuracy    <          1.1E-11 Ry
     smearing contrib. (-TS)   =      -0.00005015 Ry
     internal energy E=F+TS    =     -22.79091590 Ry

     The total energy is F=E-TS. E is the sum of the following terms:
     one-electron contribution =    -388.35758315 Ry
     hartree contribution      =     194.80131646 Ry
     xc contribution           =      -7.01853752 Ry
     ewald contribution        =     177.78388831 Ry

     convergence has been achieved in   7 iterations

     Forces acting on atoms (cartesian axes, Ry/au):

     atom    1 type  1   force =     0.00000000    0.00000000    0.00000000
     atom    2 type  1   force =     0.00000000    0.00000000    0.00000000

     Total force =     0.000000     Total SCF correction =     0.000000

     Computing stress (Cartesian axis) and pressure

          total   stress  (Ry/bohr**3)                   (kbar)     P=      -13.10
  -0.00007954   0.00000000  -0.00000000          -11.70        0.00       -0.00
   0.00000000  -0.00007954  -0.00000000            0.00      -11.70       -0.00
  -0.00000000  -0.00000000  -0.00010812           -0.00       -0.00      -15.90

     Writing output data file ./work/LiC560.save/

     General routines

     Parallel routines

   This run was terminated on:  15:49: 7  19Jan2024

   JOB DONE.