     Program PWSCF v.6.7MaX starts on 19Jan2024 at 14: 6:27

     R & G space division:  proc/nbgrp/npool/nimage =      32
     Waiting for input...
     Reading input from standard input

     Current dimensions of program PWSCF are:
     Max number of different atomic species (ntypx) = 10
     Max number of k-points (npk) =  40000
     Max angular momentum in pseudopotentials (lmaxx) =  3
     Message from routine read_pp_mesh:
     mesh size missing, using the one in header

     Subspace diagonalization in iterative solution of the eigenvalue problem:
     a serial algorithm will be used

     bravais-lattice index     =            4
     lattice parameter (alat)  =       4.2400  a.u.
     unit-cell volume          =     630.5469 (a.u.)^3
     number of atoms/cell      =            2
     number of atomic types    =            1
     number of electrons       =         8.00
     number of Kohn-Sham states=            8
     kinetic-energy cutoff     =      50.0000  Ry
     charge density cutoff     =     200.0000  Ry
     scf convergence threshold =      1.0E-08
     mixing beta               =       0.7000
     number of iterations used =            8  plain     mixing
     energy convergence thresh.=      1.0E-04
     force convergence thresh. =      1.0E-08
     press convergence thresh. =      1.0E-03
     Exchange-correlation= PBE
                           (   1   4   3   4   0   0   0)
     nstep                     =           50

     celldm(1)=   4.240000  celldm(2)=   0.000000  celldm(3)=   9.551887
     celldm(4)=   0.000000  celldm(5)=   0.000000  celldm(6)=   0.000000

     crystal axes: (cart. coord. in units of alat)
               a(1) = (   1.000000   0.000000   0.000000 )
               a(2) = (  -0.500000   0.866025   0.000000 )
               a(3) = (   0.000000   0.000000   9.551887 )

     reciprocal axes: (cart. coord. in units 2 pi/alat)
               b(1) = (  1.000000  0.577350  0.000000 )
               b(2) = (  0.000000  1.154701  0.000000 )
               b(3) = (  0.000000  0.000000  0.104691 )

     PseudoPot. # 1 for C  read from file:
     /home/yhkim/qe-6.7/pseudo/ONCV1/1.2/C_ONCV_PBE-1.2.upf
     MD5 check sum: 1a5f83a7b1f58d24996abe00ed223ac6
     Pseudo is Norm-conserving, Zval =  4.0
     Generated using ONCVPSP code by D. R. Hamann
     Using radial grid of  602 points,  4 beta functions with:
                l(1) =   0
                l(2) =   0
                l(3) =   1
                l(4) =   1

     atomic species   valence    mass     pseudopotential
        C              4.00    12.01070     C ( 1.00)

     24 Sym. Ops., with inversion, found

   Cartesian axes

     site n.     atom                  positions (alat units)
         1           C   tau(   1) = (  -0.0000000   0.5773503   4.7759434  )
         2           C   tau(   2) = (   0.5000000   0.2886751   4.7759434  )

     number of k points=    27  Methfessel-Paxton smearing, width (Ry)=  0.0100
                       cart. coord. in units 2pi/alat
        k(    1) = (   0.0000000   0.0000000   0.0000000), wk =   0.0088889
        k(    2) = (   0.0000000   0.0769800   0.0000000), wk =   0.0533333
        k(    3) = (   0.0000000   0.1539601   0.0000000), wk =   0.0533333
        k(    4) = (   0.0000000   0.2309401   0.0000000), wk =   0.0533333
        k(    5) = (   0.0000000   0.3079201   0.0000000), wk =   0.0533333
        k(    6) = (   0.0000000   0.3849002   0.0000000), wk =   0.0533333
        k(    7) = (   0.0000000   0.4618802   0.0000000), wk =   0.0533333
        k(    8) = (   0.0000000   0.5388603   0.0000000), wk =   0.0533333
        k(    9) = (   0.0666667   0.1154701   0.0000000), wk =   0.0533333
        k(   10) = (   0.0666667   0.1924501   0.0000000), wk =   0.1066667
        k(   11) = (   0.0666667   0.2694301   0.0000000), wk =   0.1066667
        k(   12) = (   0.0666667   0.3464102   0.0000000), wk =   0.1066667
        k(   13) = (   0.0666667   0.4233902   0.0000000), wk =   0.1066667
        k(   14) = (   0.0666667   0.5003702   0.0000000), wk =   0.1066667
        k(   15) = (   0.0666667   0.5773503   0.0000000), wk =   0.0533333
        k(   16) = (   0.1333333   0.2309401   0.0000000), wk =   0.0533333
        k(   17) = (   0.1333333   0.3079201   0.0000000), wk =   0.1066667
        k(   18) = (   0.1333333   0.3849002   0.0000000), wk =   0.1066667
        k(   19) = (   0.1333333   0.4618802   0.0000000), wk =   0.1066667
        k(   20) = (   0.1333333   0.5388603   0.0000000), wk =   0.1066667
        k(   21) = (   0.2000000   0.3464102   0.0000000), wk =   0.0533333
        k(   22) = (   0.2000000   0.4233902   0.0000000), wk =   0.1066667
        k(   23) = (   0.2000000   0.5003702   0.0000000), wk =   0.1066667
        k(   24) = (   0.2000000   0.5773503   0.0000000), wk =   0.0533333
        k(   25) = (   0.2666667   0.4618802   0.0000000), wk =   0.0533333
        k(   26) = (   0.2666667   0.5388603   0.0000000), wk =   0.1066667
        k(   27) = (   0.3333333   0.5773503   0.0000000), wk =   0.0177778

     Initial potential from superposition of free atoms

     starting charge    7.98607, renormalised to    8.00000

     negative rho (up, down):  1.082E-04 0.000E+00
     Starting wfcs are random

     Self-consistent Calculation

     iteration #  1     ecut=    50.00 Ry     beta= 0.70
     Davidson diagonalization with overlap
     ethr =  1.00E-02,  avg # of iterations = 11.5

     negative rho (up, down):  3.620E-07 0.000E+00

     total energy              =     -22.63080018 Ry
     estimated scf accuracy    <       0.35782587 Ry

[...]

     iteration #  4     ecut=    50.00 Ry     beta= 0.70
     Davidson diagonalization with overlap
     c_bands:  1 eigenvalues not converged
     ethr =  2.05E-06,  avg # of iterations =  6.5

[...]

     End of self-consistent calculation

          k = 0.0000 0.0000 0.0000 (  3799 PWs)   bands (ev):

   -25.2639 -13.0689  -6.2138  -1.0298  -0.2102   0.5616   0.9170   2.2408

[...]

     the Fermi energy is    -3.2935 ev

!    total energy              =     -22.68546417 Ry
     estimated scf accuracy    <          3.6E-09 Ry
     smearing contrib. (-TS)   =      -0.00003668 Ry
     internal energy E=F+TS    =     -22.68542749 Ry

     The total energy is F=E-TS. E is the sum of the following terms:
     one-electron contribution =    -468.31585887 Ry
     hartree contribution      =     234.99721003 Ry
     xc contribution           =      -7.44051466 Ry
     ewald contribution        =     218.07373601 Ry

     convergence has been achieved in   6 iterations

     Forces acting on atoms (cartesian axes, Ry/au):

     atom    1 type  1   force =     0.00000000    0.00000000    0.00000000
     atom    2 type  1   force =    -0.00000000   -0.00000000    0.00000000

     Total force =     0.000000     Total SCF correction =     0.000000

     Computing stress (Cartesian axis) and pressure

          total   stress  (Ry/bohr**3)                   (kbar)     P=      156.57
   0.00166507  -0.00000000   0.00000000          244.94       -0.00        0.00
  -0.00000000   0.00166507  -0.00000000           -0.00      244.94       -0.00
   0.00000000  -0.00000000  -0.00013716            0.00       -0.00      -20.18

     BFGS Geometry Optimization
     Energy error            =      0.0E+00
     Gradient error          =      1.7E-26
     Cell gradient error     =      1.7E-03

     number of scf cycles    =   1
     number of bfgs steps    =   0

     enthalpy new            =     -22.6854641689 Ry

     new trust radius        =       0.2090553162 bohr
     new conv_thr            =       0.0000000100 Ry

     new unit-cell volume =    684.13470 a.u.^3 (   101.37830 Ang^3 )
     density =      0.39346 g/cm^3

CELL_PARAMETERS (alat=  4.24000000)
   1.041626753  -0.000000000   0.000000000
  -0.520813377   0.902075230   0.000000000
   0.000000000   0.000000000   9.551886792

ATOMIC_POSITIONS (crystal)
C             0.3333333333        0.6666666667        0.5000000000
C             0.6666666667        0.3333333333        0.5000000000

     Writing output data file ./work/LiC424.save/
     NEW-OLD atomic charge density approx. for the potential

     negative rho (up, down):  1.174E-04 0.000E+00
     extrapolated charge    8.62554, renormalised to    8.00000

[...]

     Energy error            =      6.3E-02
     Gradient error          =      0.0E+00
     Cell gradient error     =      6.9E-04

[...]

     enthalpy old            =     -22.6854641689 Ry
     enthalpy new            =     -22.7488363879 Ry

     CASE: enthalpy_new < enthalpy_old

[...]

          k =-0.0000 0.0717 0.0000 (  3775 PWs)   bands (ev):

[...]

     Writing output data file ./work/LiC424.save/
     NEW-OLD atomic charge density approx. for the potential

     negative rho (up, down):  1.324E-08 0.000E+00
     extrapolated charge    8.01597, renormalised to    8.00000

[...]

     number of scf cycles    =   5
     number of bfgs steps    =   4

     enthalpy old            =     -22.7663512777 Ry
     enthalpy new            =     -22.7663634418 Ry

     CASE: enthalpy_new < enthalpy_old

     new trust radius        =       0.0001627088 bohr
     new conv_thr            =            1.0E-10 Ry

     new unit-cell volume =    738.42855 a.u.^3 (   109.42382 Ang^3 )
     density =      0.36453 g/cm^3

[...]

ATOMIC_POSITIONS (crystal)
C             0.3333333333        0.6666666667        0.5000000000
C             0.6666666667        0.3333333333        0.5000000000

     Writing output data file ./work/LiC424.save/
     NEW-OLD atomic charge density approx. for the potential
     extrapolated charge    8.00048, renormalised to    8.00000

[...]

     Threshold (ethr) on eigenvalues was too large:
     Diagonalizing with lowered threshold

     Davidson diagonalization with overlap
     ethr =  8.18E-10,  avg # of iterations =  1.4

[...]

     Energy error            =      1.0E-08
     Gradient error          =      1.6E-26
     Cell gradient error     =      3.3E-09

     bfgs converged in   6 scf cycles and   5 bfgs steps
     (criteria: energy <  1.0E-04 Ry, force <  1.0E-08Ry/Bohr, cell <  1.0E-03kbar)

     End of BFGS Geometry Optimization

     Final enthalpy =     -22.7663634522 Ry

     File ./work/LiC424.bfgs deleted, as requested
Begin final coordinates
     new unit-cell volume =    738.42855 a.u.^3 (   109.42382 Ang^3 )
     density =      0.36453 g/cm^3

CELL_PARAMETERS (alat=  4.24000000)
   1.082170162   0.000000000   0.000000000
  -0.541085081   0.937186851   0.000000000
   0.000000000   0.000000000   9.551886792

ATOMIC_POSITIONS (crystal)
C             0.3333333333        0.6666666667        0.5000000000
C             0.6666666667        0.3333333333        0.5000000000
End final coordinates

     Writing output data file ./work/LiC424.save/

     Final scf calculation at the relaxed structure.
     The G-vectors are recalculated for the final unit cell
     Results may differ from those at the preceding step.

     bravais-lattice index     =            4
     lattice parameter (alat)  =       4.2400  a.u.
     unit-cell volume          =     738.4285 (a.u.)^3
     number of atoms/cell      =            2
     number of atomic types    =            1
     number of electrons       =         8.00
     number of Kohn-Sham states=            8
     kinetic-energy cutoff     =      50.0000  Ry
     charge density cutoff     =     200.0000  Ry
     scf convergence threshold =      1.0E-10
     mixing beta               =       0.7000
     number of iterations used =            8  plain     mixing
     press convergence thresh. =      1.0E-03
     Exchange-correlation= PBE
                           (   1   4   3   4   0   0   0)

     celldm(1)=   4.240000  celldm(2)=   0.000000  celldm(3)=   9.551887
     celldm(4)=   0.000000  celldm(5)=   0.000000  celldm(6)=   0.000000

     crystal axes: (cart. coord. in units of alat)
               a(1) = (   1.082170   0.000000   0.000000 )
               a(2) = (  -0.541085   0.937187   0.000000 )
               a(3) = (   0.000000   0.000000   9.551887 )

     reciprocal axes: (cart. coord. in units 2 pi/alat)
               b(1) = (  0.924069  0.533512  0.000000 )
               b(2) = ( -0.000000  1.067023  0.000000 )
               b(3) = (  0.000000  0.000000  0.104691 )

     PseudoPot. # 1 for C  read from file:
     /home/yhkim/qe-6.7/pseudo/ONCV1/1.2/C_ONCV_PBE-1.2.upf
     MD5 check sum: 1a5f83a7b1f58d24996abe00ed223ac6
     Pseudo is Norm-conserving, Zval =  4.0
     Generated using ONCVPSP code by D. R. Hamann
     Using radial grid of  602 points,  4 beta functions with:
                l(1) =   0
                l(2) =   0
                l(3) =   1
                l(4) =   1

     atomic species   valence    mass     pseudopotential
        C              4.00    12.01070     C ( 1.00)

     24 Sym. Ops., with inversion, found

   Cartesian axes

     site n.     atom                  positions (alat units)
         1           C   tau(   1) = (  -0.0000000   0.6247912   4.7759434  )
         2           C   tau(   2) = (   0.5410851   0.3123956   4.7759434  )

     number of k points=    27  Methfessel-Paxton smearing, width (Ry)=  0.0100
                       cart. coord. in units 2pi/alat
        k(    1) = (   0.0000000   0.0000000   0.0000000), wk =   0.0088889
        k(    2) = (  -0.0000000   0.0711349   0.0000000), wk =   0.0533333
        k(    3) = (  -0.0000000   0.1422697   0.0000000), wk =   0.0533333
        k(    4) = (  -0.0000000   0.2134046   0.0000000), wk =   0.0533333
        k(    5) = (  -0.0000000   0.2845395   0.0000000), wk =   0.0533333
        k(    6) = (  -0.0000000   0.3556744   0.0000000), wk =   0.0533333
        k(    7) = (  -0.0000000   0.4268092   0.0000000), wk =   0.0533333
        k(    8) = (  -0.0000000   0.4979441   0.0000000), wk =   0.0533333
        k(    9) = (   0.0616046   0.1067023   0.0000000), wk =   0.0533333
        k(   10) = (   0.0616046   0.1778372   0.0000000), wk =   0.1066667
        k(   11) = (   0.0616046   0.2489721   0.0000000), wk =   0.1066667
        k(   12) = (   0.0616046   0.3201069   0.0000000), wk =   0.1066667
        k(   13) = (   0.0616046   0.3912418   0.0000000), wk =   0.1066667
        k(   14) = (   0.0616046   0.4623767   0.0000000), wk =   0.1066667
        k(   15) = (   0.0616046   0.5335115   0.0000000), wk =   0.0533333
        k(   16) = (   0.1232092   0.2134046   0.0000000), wk =   0.0533333
        k(   17) = (   0.1232092   0.2845395   0.0000000), wk =   0.1066667
        k(   18) = (   0.1232092   0.3556744   0.0000000), wk =   0.1066667
        k(   19) = (   0.1232092   0.4268092   0.0000000), wk =   0.1066667
        k(   20) = (   0.1232092   0.4979441   0.0000000), wk =   0.1066667
        k(   21) = (   0.1848138   0.3201069   0.0000000), wk =   0.0533333
        k(   22) = (   0.1848138   0.3912418   0.0000000), wk =   0.1066667
        k(   23) = (   0.1848138   0.4623767   0.0000000), wk =   0.1066667
        k(   24) = (   0.1848138   0.5335115   0.0000000), wk =   0.0533333
        k(   25) = (   0.2464184   0.4268092   0.0000000), wk =   0.0533333
        k(   26) = (   0.2464184   0.4979441   0.0000000), wk =   0.1066667
        k(   27) = (   0.3080230   0.5335115   0.0000000), wk =   0.0177778

     Initial potential from superposition of free atoms

     starting charge    7.98607, renormalised to    8.00000

     negative rho (up, down):  1.114E-04 0.000E+00
     Starting wfcs are random

     Self-consistent Calculation

[...]

     negative rho (up, down):  2.785E-06 0.000E+00

[...]

     iteration #  4     ecut=    50.00 Ry     beta= 0.70
     Davidson diagonalization with overlap
     c_bands:  1 eigenvalues not converged
     ethr =  2.21E-06,  avg # of iterations =  6.0

[...]

     total energy              =     -22.78834351 Ry
     estimated scf accuracy    <          8.8E-10 Ry

     iteration #  7     ecut=    50.00 Ry     beta= 0.70
     Davidson diagonalization with overlap
     ethr =  1.10E-11,  avg # of iterations =  3.1

     End of self-consistent calculation

[...]

          k =-0.0000 0.4979 0.0000 (  4433 PWs)   bands (ev):

[...]

          k = 0.3080 0.5335 0.0000 (  4395 PWs)   bands (ev):

   -16.8770 -16.8770 -15.0511  -4.1077  -4.1077   6.5869   9.0818   9.0819

     the Fermi energy is    -4.1077 ev

!    total energy              =     -22.78834351 Ry
     estimated scf accuracy    <          1.3E-11 Ry
     smearing contrib. (-TS)   =      -0.00005015 Ry
     internal energy E=F+TS    =     -22.78829336 Ry

     The total energy is F=E-TS. E is the sum of the following terms:
     one-electron contribution =    -399.05570683 Ry
     hartree contribution      =     200.17822280 Ry
     xc contribution           =      -7.07687525 Ry
     ewald contribution        =     183.16606592 Ry

     convergence has been achieved in   7 iterations

     Forces acting on atoms (cartesian axes, Ry/au):

     atom    1 type  1   force =    -0.00000000   -0.00000000    0.00000000
     atom    2 type  1   force =     0.00000000    0.00000000    0.00000000

     Total force =     0.000000     Total SCF correction =     0.000000

     Computing stress (Cartesian axis) and pressure

          total   stress  (Ry/bohr**3)                   (kbar)     P=        4.56
   0.00010251  -0.00000000   0.00000000           15.08       -0.00        0.00
  -0.00000000   0.00010251   0.00000000           -0.00       15.08        0.00
   0.00000000   0.00000000  -0.00011199            0.00        0.00      -16.47

     Writing output data file ./work/LiC424.save/

     General routines

     Parallel routines

   This run was terminated on:  14: 6:48  19Jan2024

   JOB DONE.