     Program PWSCF v.6.7MaX starts on 19Jan2024 at 13:52:16

     R & G space division:  proc/nbgrp/npool/nimage =      32
     Waiting for input...
     Reading input from standard input

     Current dimensions of program PWSCF are:
     Max number of different atomic species (ntypx) = 10
     Max number of k-points (npk) =  40000
     Max angular momentum in pseudopotentials (lmaxx) =  3
     Message from routine read_pp_mesh:
     mesh size missing, using the one in header

     Subspace diagonalization in iterative solution of the eigenvalue problem:
     a serial algorithm will be used

     bravais-lattice index     =            4
     lattice parameter (alat)  =       4.0200  a.u.
     unit-cell volume          =     566.8103 (a.u.)^3
     number of atoms/cell      =            2
     number of atomic types    =            1
     number of electrons       =         8.00
     number of Kohn-Sham states=            8
     kinetic-energy cutoff     =      50.0000  Ry
     charge density cutoff     =     200.0000  Ry
     scf convergence threshold =      1.0E-08
     mixing beta               =       0.7000
     number of iterations used =            8  plain     mixing
     energy convergence thresh.=      1.0E-04
     force convergence thresh. =      1.0E-08
     press convergence thresh. =      1.0E-03
     Exchange-correlation= PBE
                           (   1   4   3   4   0   0   0)
     nstep                     =           50

     celldm(1)=   4.020000  celldm(2)=   0.000000  celldm(3)=  10.074627
     celldm(4)=   0.000000  celldm(5)=   0.000000  celldm(6)=   0.000000

     crystal axes: (cart. coord. in units of alat)
               a(1) = (   1.000000   0.000000   0.000000 )
               a(2) = (  -0.500000   0.866025   0.000000 )
               a(3) = (   0.000000   0.000000  10.074627 )

     reciprocal axes: (cart. coord. in units 2 pi/alat)
               b(1) = (  1.000000  0.577350  0.000000 )
               b(2) = (  0.000000  1.154701  0.000000 )
               b(3) = (  0.000000  0.000000  0.099259 )

     PseudoPot. # 1 for C  read from file:
     /home/yhkim/qe-6.7/pseudo/ONCV1/1.2/C_ONCV_PBE-1.2.upf
     MD5 check sum: 1a5f83a7b1f58d24996abe00ed223ac6
     Pseudo is Norm-conserving, Zval =  4.0
     Generated using ONCVPSP code by D. R. Hamann
     Using radial grid of  602 points,  4 beta functions with:
                l(1) =   0
                l(2) =   0
                l(3) =   1
                l(4) =   1

     atomic species   valence    mass     pseudopotential
        C              4.00    12.01070     C ( 1.00)

     24 Sym. Ops., with inversion, found

   Cartesian axes

     site n.     atom                  positions (alat units)
         1           C   tau(   1) = (  -0.0000000   0.5773503   5.0373134  )
         2           C   tau(   2) = (   0.5000000   0.2886751   5.0373134  )

     number of k points=    27  Methfessel-Paxton smearing, width (Ry)=  0.0100
                       cart. coord. in units 2pi/alat
        k(    1) = (   0.0000000   0.0000000   0.0000000), wk =   0.0088889
        k(    2) = (   0.0000000   0.0769800   0.0000000), wk =   0.0533333
        k(    3) = (   0.0000000   0.1539601   0.0000000), wk =   0.0533333
        k(    4) = (   0.0000000   0.2309401   0.0000000), wk =   0.0533333
        k(    5) = (   0.0000000   0.3079201   0.0000000), wk =   0.0533333
        k(    6) = (   0.0000000   0.3849002   0.0000000), wk =   0.0533333
        k(    7) = (   0.0000000   0.4618802   0.0000000), wk =   0.0533333
        k(    8) = (   0.0000000   0.5388603   0.0000000), wk =   0.0533333
        k(    9) = (   0.0666667   0.1154701   0.0000000), wk =   0.0533333
        k(   10) = (   0.0666667   0.1924501   0.0000000), wk =   0.1066667
        k(   11) = (   0.0666667   0.2694301   0.0000000), wk =   0.1066667
        k(   12) = (   0.0666667   0.3464102   0.0000000), wk =   0.1066667
        k(   13) = (   0.0666667   0.4233902   0.0000000), wk =   0.1066667
        k(   14) = (   0.0666667   0.5003702   0.0000000), wk =   0.1066667
        k(   15) = (   0.0666667   0.5773503   0.0000000), wk =   0.0533333
        k(   16) = (   0.1333333   0.2309401   0.0000000), wk =   0.0533333
        k(   17) = (   0.1333333   0.3079201   0.0000000), wk =   0.1066667
        k(   18) = (   0.1333333   0.3849002   0.0000000), wk =   0.1066667
        k(   19) = (   0.1333333   0.4618802   0.0000000), wk =   0.1066667
        k(   20) = (   0.1333333   0.5388603   0.0000000), wk =   0.1066667
        k(   21) = (   0.2000000   0.3464102   0.0000000), wk =   0.0533333
        k(   22) = (   0.2000000   0.4233902   0.0000000), wk =   0.1066667
        k(   23) = (   0.2000000   0.5003702   0.0000000), wk =   0.1066667
        k(   24) = (   0.2000000   0.5773503   0.0000000), wk =   0.0533333
        k(   25) = (   0.2666667   0.4618802   0.0000000), wk =   0.0533333
        k(   26) = (   0.2666667   0.5388603   0.0000000), wk =   0.1066667
        k(   27) = (   0.3333333   0.5773503   0.0000000), wk =   0.0177778

     Initial potential from superposition of free atoms

     starting charge    7.98607, renormalised to    8.00000

     negative rho (up, down):  9.946E-05 0.000E+00
     Starting wfcs are random

     Self-consistent Calculation

     iteration #  1     ecut=    50.00 Ry     beta= 0.70
     Davidson diagonalization with overlap
     ethr =  1.00E-02,  avg # of iterations = 12.0

     negative rho (up, down):  8.873E-08 0.000E+00

     total energy              =     -22.43727122 Ry
     estimated scf accuracy    <       0.51916876 Ry

[...]

     End of self-consistent calculation

          k = 0.0000 0.0000 0.0000 (  3421 PWs)   bands (ev):

   -26.0586 -13.8179  -5.3366  -1.0496  -0.2146   0.5483   0.9022   2.2238

[...]

     the Fermi energy is    -2.6604 ev

!    total energy              =     -22.51797634 Ry
     estimated scf accuracy    <          3.3E-09 Ry
     smearing contrib. (-TS)   =      -0.00003668 Ry
     internal energy E=F+TS    =     -22.51793966 Ry

     The total energy is F=E-TS. E is the sum of the following terms:
     one-electron contribution =    -521.83702246 Ry
     hartree contribution      =     261.92383023 Ry
     xc contribution           =      -7.70772252 Ry
     ewald contribution        =     245.10297509 Ry

     convergence has been achieved in   6 iterations

     Forces acting on atoms (cartesian axes, Ry/au):

     atom    1 type  1   force =     0.00000000    0.00000000    0.00000000
     atom    2 type  1   force =     0.00000000    0.00000000    0.00000000

     Total force =     0.000000     Total SCF correction =     0.000000

     Computing stress (Cartesian axis) and pressure

          total   stress  (Ry/bohr**3)                   (kbar)     P=      320.30
   0.00334511   0.00000000   0.00000000          492.08        0.00        0.00
   0.00000000   0.00334511   0.00000000            0.00      492.08        0.00
   0.00000000   0.00000000  -0.00015806            0.00        0.00      -23.25

     BFGS Geometry Optimization
     Energy error            =      0.0E+00
     Gradient error          =      0.0E+00
     Cell gradient error     =      3.3E-03

     number of scf cycles    =   1
     number of bfgs steps    =   0

     enthalpy new            =     -22.5179763357 Ry

     new trust radius        =       0.3981984114 bohr
     new conv_thr            =       0.0000000100 Ry

     new unit-cell volume =    665.57658 a.u.^3 (    98.62827 Ang^3 )
     density =      0.40443 g/cm^3

CELL_PARAMETERS (alat=  4.02000000)
   1.083627796   0.000000000   0.000000000
  -0.541813898   0.938449200   0.000000000
   0.000000000   0.000000000  10.074626866

ATOMIC_POSITIONS (crystal)
C             0.3333333333        0.6666666667        0.5000000000
C             0.6666666667        0.3333333333        0.5000000000

     Writing output data file ./work/LiC402.save/
     NEW-OLD atomic charge density approx. for the potential

     negative rho (up, down):  1.867E-04 0.000E+00
     extrapolated charge    9.18507, renormalised to    8.00000

[...]

     iteration #  1     ecut=    50.00 Ry     beta= 0.70
     Davidson diagonalization with overlap
     c_bands:  3 eigenvalues not converged
     c_bands:  5 eigenvalues not converged
     c_bands:  5 eigenvalues not converged
     c_bands:  5 eigenvalues not converged
     c_bands:  5 eigenvalues not converged
     c_bands:  5 eigenvalues not converged
     c_bands:  1 eigenvalues not converged
     c_bands:  5 eigenvalues not converged
     c_bands:  5 eigenvalues not converged
     c_bands:  5 eigenvalues not converged
     c_bands:  5 eigenvalues not converged
     c_bands:  5 eigenvalues not converged
     c_bands:  5 eigenvalues not converged
     c_bands:  5 eigenvalues not converged
     c_bands:  2 eigenvalues not converged
     c_bands:  5 eigenvalues not converged
     c_bands:  2 eigenvalues not converged
     c_bands:  3 eigenvalues not converged
     c_bands:  5 eigenvalues not converged
     c_bands:  2 eigenvalues not converged
     c_bands:  2 eigenvalues not converged
     c_bands:  5 eigenvalues not converged
     c_bands:  5 eigenvalues not converged
     c_bands:  1 eigenvalues not converged
     c_bands:  5 eigenvalues not converged
     c_bands:  4 eigenvalues not converged
     ethr =  1.00E-06,  avg # of iterations = 28.1

[...]

          k =-0.0000 0.0710 0.0000 (  3417 PWs)   bands (ev):

[...]

     Energy error            =      2.0E-01
     Gradient error          =      1.6E-26
     Cell gradient error     =      9.0E-04

[...]

     enthalpy old            =     -22.5179763357 Ry
     enthalpy new            =     -22.7156277873 Ry

     CASE: enthalpy_new < enthalpy_old

[...]

     negative rho (up, down):  2.108E-06 0.000E+00
     extrapolated charge    8.03283, renormalised to    8.00000

[...]

     Writing output data file ./work/LiC402.save/
     NEW-OLD atomic charge density approx. for the potential
     extrapolated charge    8.00175, renormalised to    8.00000

[...]

     Threshold (ethr) on eigenvalues was too large:
     Diagonalizing with lowered threshold

     Davidson diagonalization with overlap
     ethr =  1.13E-08,  avg # of iterations =  1.0

[...]

     CASE: enthalpy_new < enthalpy_old

     small trust_radius: resetting bfgs history

     new trust radius        =       0.0000015839 bohr
     new conv_thr            =            1.0E-10 Ry

[...]

     Writing output data file ./work/LiC402.save/
     NEW-OLD atomic charge density approx. for the potential
     extrapolated charge    8.00000, renormalised to    8.00000

[...]

     Energy error            =      2.5E-11
     Gradient error          =      0.0E+00
     Cell gradient error     =      1.4E-08

     number of scf cycles    =   7
     number of bfgs steps    =   6

     enthalpy old            =     -22.7426231701 Ry
     enthalpy new            =     -22.7426231701 Ry

     CASE: enthalpy_new > enthalpy_old

     new trust radius        =       0.0000001316 bohr

     trust_radius < trust_radius_min

     resetting bfgs history

     Message from routine bfgs:
     history already reset at previous step: stopping
     new conv_thr            =            1.0E-10 Ry

     new unit-cell volume =    730.28290 a.u.^3 (   108.21676 Ang^3 )
     density =      0.36860 g/cm^3

[...]

ATOMIC_POSITIONS (crystal)
C             0.3333333333        0.6666666667        0.5000000000
C             0.6666666667        0.3333333333        0.5000000000

     Writing output data file ./work/LiC402.save/
     NEW-OLD atomic charge density approx. for the potential

[...]

     Threshold (ethr) on eigenvalues was too large:
     Diagonalizing with lowered threshold

     Davidson diagonalization with overlap
     ethr =  1.90E-13,  avg # of iterations =  1.9

[...]

     Message from routine bfgs:
     history already reset at previous step: stopping
     Energy error            =      2.9E-11
     Gradient error          =      0.0E+00
     Cell gradient error     =      7.0E-09

     bfgs converged in   8 scf cycles and   6 bfgs steps
     (criteria: energy <  1.0E-04 Ry, force <  1.0E-08Ry/Bohr, cell <  1.0E-03kbar)

     End of BFGS Geometry Optimization

     Final enthalpy =     -22.7426231701 Ry

     File ./work/LiC402.bfgs deleted, as requested
Begin final coordinates
     new unit-cell volume =    730.28290 a.u.^3 (   108.21676 Ang^3 )
     density =      0.36860 g/cm^3

CELL_PARAMETERS (alat=  4.02000000)
   1.135080556   0.000000000   0.000000000
  -0.567540278   0.983008597   0.000000000
   0.000000000   0.000000000  10.074626866

ATOMIC_POSITIONS (crystal)
C             0.3333333333        0.6666666667        0.5000000000
C             0.6666666667        0.3333333333        0.5000000000
End final coordinates

     Writing output data file ./work/LiC402.save/

     Final scf calculation at the relaxed structure.
     The G-vectors are recalculated for the final unit cell
     Results may differ from those at the preceding step.

     bravais-lattice index     =            4
     lattice parameter (alat)  =       4.0200  a.u.
     unit-cell volume          =     730.2829 (a.u.)^3
     number of atoms/cell      =            2
     number of atomic types    =            1
     number of electrons       =         8.00
     number of Kohn-Sham states=            8
     kinetic-energy cutoff     =      50.0000  Ry
     charge density cutoff     =     200.0000  Ry
     scf convergence threshold =      1.0E-10
     mixing beta               =       0.7000
     number of iterations used =            8  plain     mixing
     press convergence thresh. =      1.0E-03
     Exchange-correlation= PBE
                           (   1   4   3   4   0   0   0)

     celldm(1)=   4.020000  celldm(2)=   0.000000  celldm(3)=  10.074627
     celldm(4)=   0.000000  celldm(5)=   0.000000  celldm(6)=   0.000000

     crystal axes: (cart. coord. in units of alat)
               a(1) = (   1.135081   0.000000   0.000000 )
               a(2) = (  -0.567540   0.983009   0.000000 )
               a(3) = (   0.000000   0.000000  10.074627 )

     reciprocal axes: (cart. coord. in units 2 pi/alat)
               b(1) = (  0.880995  0.508643  0.000000 )
               b(2) = ( -0.000000  1.017285  0.000000 )
               b(3) = (  0.000000  0.000000  0.099259 )

     PseudoPot. # 1 for C  read from file:
     /home/yhkim/qe-6.7/pseudo/ONCV1/1.2/C_ONCV_PBE-1.2.upf
     MD5 check sum: 1a5f83a7b1f58d24996abe00ed223ac6
     Pseudo is Norm-conserving, Zval =  4.0
     Generated using ONCVPSP code by D. R. Hamann
     Using radial grid of  602 points,  4 beta functions with:
                l(1) =   0
                l(2) =   0
                l(3) =   1
                l(4) =   1

     atomic species   valence    mass     pseudopotential
        C              4.00    12.01070     C ( 1.00)

     24 Sym. Ops., with inversion, found

   Cartesian axes

     site n.     atom                  positions (alat units)
         1           C   tau(   1) = (  -0.0000000   0.6553391   5.0373134  )
         2           C   tau(   2) = (   0.5675403   0.3276695   5.0373134  )

     number of k points=    27  Methfessel-Paxton smearing, width (Ry)=  0.0100
                       cart. coord. in units 2pi/alat
        k(    1) = (   0.0000000   0.0000000   0.0000000), wk =   0.0088889
        k(    2) = (  -0.0000000   0.0678190   0.0000000), wk =   0.0533333
        k(    3) = (  -0.0000000   0.1356380   0.0000000), wk =   0.0533333
        k(    4) = (  -0.0000000   0.2034570   0.0000000), wk =   0.0533333
        k(    5) = (  -0.0000000   0.2712760   0.0000000), wk =   0.0533333
        k(    6) = (  -0.0000000   0.3390950   0.0000000), wk =   0.0533333
        k(    7) = (  -0.0000000   0.4069140   0.0000000), wk =   0.0533333
        k(    8) = (  -0.0000000   0.4747330   0.0000000), wk =   0.0533333
        k(    9) = (   0.0587330   0.1017285   0.0000000), wk =   0.0533333
        k(   10) = (   0.0587330   0.1695475   0.0000000), wk =   0.1066667
        k(   11) = (   0.0587330   0.2373665   0.0000000), wk =   0.1066667
        k(   12) = (   0.0587330   0.3051855   0.0000000), wk =   0.1066667
        k(   13) = (   0.0587330   0.3730045   0.0000000), wk =   0.1066667
        k(   14) = (   0.0587330   0.4408235   0.0000000), wk =   0.1066667
        k(   15) = (   0.0587330   0.5086426   0.0000000), wk =   0.0533333
        k(   16) = (   0.1174660   0.2034570   0.0000000), wk =   0.0533333
        k(   17) = (   0.1174660   0.2712760   0.0000000), wk =   0.1066667
        k(   18) = (   0.1174660   0.3390950   0.0000000), wk =   0.1066667
        k(   19) = (   0.1174660   0.4069140   0.0000000), wk =   0.1066667
        k(   20) = (   0.1174660   0.4747330   0.0000000), wk =   0.1066667
        k(   21) = (   0.1761989   0.3051855   0.0000000), wk =   0.0533333
        k(   22) = (   0.1761989   0.3730045   0.0000000), wk =   0.1066667
        k(   23) = (   0.1761989   0.4408235   0.0000000), wk =   0.1066667
        k(   24) = (   0.1761989   0.5086426   0.0000000), wk =   0.0533333
        k(   25) = (   0.2349319   0.4069140   0.0000000), wk =   0.0533333
        k(   26) = (   0.2349319   0.4747330   0.0000000), wk =   0.1066667
        k(   27) = (   0.2936649   0.5086426   0.0000000), wk =   0.0177778

     Initial potential from superposition of free atoms

     starting charge    7.98607, renormalised to    8.00000

     negative rho (up, down):  1.114E-04 0.000E+00
     Starting wfcs are random

     Self-consistent Calculation

[...]

     negative rho (up, down):  2.727E-06 0.000E+00

[...]

     iteration #  4     ecut=    50.00 Ry     beta= 0.70
     Davidson diagonalization with overlap
     c_bands:  1 eigenvalues not converged
     ethr =  2.23E-06,  avg # of iterations =  6.4

[...]

     total energy              =     -22.78610070 Ry
     estimated scf accuracy    <          9.6E-10 Ry

     iteration #  7     ecut=    50.00 Ry     beta= 0.70
     Davidson diagonalization with overlap
     ethr =  1.21E-11,  avg # of iterations =  3.0

     End of self-consistent calculation

[...]

          k =-0.0000 0.4747 0.0000 (  4368 PWs)   bands (ev):

[...]

          k = 0.2937 0.5086 0.0000 (  4365 PWs)   bands (ev):

   -16.8764 -16.8764 -15.1277  -4.0571  -4.0571   6.6629   9.2358   9.2359

     the Fermi energy is    -4.0571 ev

!    total energy              =     -22.78610070 Ry
     estimated scf accuracy    <          1.1E-11 Ry
     smearing contrib. (-TS)   =      -0.00005015 Ry
     internal energy E=F+TS    =     -22.78605055 Ry

     The total energy is F=E-TS. E is the sum of the following terms:
     one-electron contribution =    -403.56137050 Ry
     hartree contribution      =     202.44300521 Ry
     xc contribution           =      -7.10129054 Ry
     ewald contribution        =     185.43360527 Ry

     convergence has been achieved in   7 iterations

     Forces acting on atoms (cartesian axes, Ry/au):

     atom    1 type  1   force =     0.00000000    0.00000000    0.00000000
     atom    2 type  1   force =     0.00000000    0.00000000    0.00000000

     Total force =     0.000000     Total SCF correction =     0.000000

     Computing stress (Cartesian axis) and pressure

          total   stress  (Ry/bohr**3)                   (kbar)     P=       12.43
   0.00018364  -0.00000000   0.00000000           27.01       -0.00        0.00
  -0.00000000   0.00018364   0.00000000           -0.00       27.01        0.00
   0.00000000   0.00000000  -0.00011375            0.00        0.00      -16.73

     Writing output data file ./work/LiC402.save/

     General routines

     Parallel routines

   This run was terminated on:  13:52:45  19Jan2024

   JOB DONE.