     Program PWSCF v.6.7MaX starts on 19Jan2024 at 14:11: 5

     R & G space division:  proc/nbgrp/npool/nimage =      32
     Waiting for input...
     Reading input from standard input

     Current dimensions of program PWSCF are:
     Max number of different atomic species (ntypx) = 10
     Max number of k-points (npk) =  40000
     Max angular momentum in pseudopotentials (lmaxx) =  3
     Message from routine read_pp_mesh:
     mesh size missing, using the one in header

     Subspace diagonalization in iterative solution of the eigenvalue problem:
     a serial algorithm will be used

     bravais-lattice index     =            4
     lattice parameter (alat)  =       4.3600  a.u.
     unit-cell volume          =     666.7433 (a.u.)^3
     number of atoms/cell      =            2
     number of atomic types    =            1
     number of electrons       =         8.00
     number of Kohn-Sham states=            8
     kinetic-energy cutoff     =      50.0000  Ry
     charge density cutoff     =     200.0000  Ry
     scf convergence threshold =      1.0E-08
     mixing beta               =       0.7000
     number of iterations used =            8  plain     mixing
     energy convergence thresh.=      1.0E-04
     force convergence thresh. =      1.0E-08
     press convergence thresh. =      1.0E-03
     Exchange-correlation= PBE
                           (   1   4   3   4   0   0   0)
     nstep                     =           50

     celldm(1)=   4.360000  celldm(2)=   0.000000  celldm(3)=   9.288991
     celldm(4)=   0.000000  celldm(5)=   0.000000  celldm(6)=   0.000000

     crystal axes: (cart. coord. in units of alat)
               a(1) = (   1.000000   0.000000   0.000000 )
               a(2) = (  -0.500000   0.866025   0.000000 )
               a(3) = (   0.000000   0.000000   9.288991 )

     reciprocal axes: (cart. coord. in units 2 pi/alat)
               b(1) = (  1.000000  0.577350  0.000000 )
               b(2) = (  0.000000  1.154701  0.000000 )
               b(3) = (  0.000000  0.000000  0.107654 )

     PseudoPot. # 1 for C  read from file:
     /home/yhkim/qe-6.7/pseudo/ONCV1/1.2/C_ONCV_PBE-1.2.upf
     MD5 check sum: 1a5f83a7b1f58d24996abe00ed223ac6
     Pseudo is Norm-conserving, Zval =  4.0
     Generated using ONCVPSP code by D. R. Hamann
     Using radial grid of  602 points,  4 beta functions with:
                l(1) =   0
                l(2) =   0
                l(3) =   1
                l(4) =   1

     atomic species   valence    mass     pseudopotential
        C              4.00    12.01070     C ( 1.00)

     24 Sym. Ops., with inversion, found

   Cartesian axes

     site n.     atom                  positions (alat units)
         1           C   tau(   1) = (  -0.0000000   0.5773503   4.6444954  )
         2           C   tau(   2) = (   0.5000000   0.2886751   4.6444954  )

     number of k points=    27  Methfessel-Paxton smearing, width (Ry)=  0.0100
                       cart. coord. in units 2pi/alat
        k(    1) = (   0.0000000   0.0000000   0.0000000), wk =   0.0088889
        k(    2) = (   0.0000000   0.0769800   0.0000000), wk =   0.0533333
        k(    3) = (   0.0000000   0.1539601   0.0000000), wk =   0.0533333
        k(    4) = (   0.0000000   0.2309401   0.0000000), wk =   0.0533333
        k(    5) = (   0.0000000   0.3079201   0.0000000), wk =   0.0533333
        k(    6) = (   0.0000000   0.3849002   0.0000000), wk =   0.0533333
        k(    7) = (   0.0000000   0.4618802   0.0000000), wk =   0.0533333
        k(    8) = (   0.0000000   0.5388603   0.0000000), wk =   0.0533333
        k(    9) = (   0.0666667   0.1154701   0.0000000), wk =   0.0533333
        k(   10) = (   0.0666667   0.1924501   0.0000000), wk =   0.1066667
        k(   11) = (   0.0666667   0.2694301   0.0000000), wk =   0.1066667
        k(   12) = (   0.0666667   0.3464102   0.0000000), wk =   0.1066667
        k(   13) = (   0.0666667   0.4233902   0.0000000), wk =   0.1066667
        k(   14) = (   0.0666667   0.5003702   0.0000000), wk =   0.1066667
        k(   15) = (   0.0666667   0.5773503   0.0000000), wk =   0.0533333
        k(   16) = (   0.1333333   0.2309401   0.0000000), wk =   0.0533333
        k(   17) = (   0.1333333   0.3079201   0.0000000), wk =   0.1066667
        k(   18) = (   0.1333333   0.3849002   0.0000000), wk =   0.1066667
        k(   19) = (   0.1333333   0.4618802   0.0000000), wk =   0.1066667
        k(   20) = (   0.1333333   0.5388603   0.0000000), wk =   0.1066667
        k(   21) = (   0.2000000   0.3464102   0.0000000), wk =   0.0533333
        k(   22) = (   0.2000000   0.4233902   0.0000000), wk =   0.1066667
        k(   23) = (   0.2000000   0.5003702   0.0000000), wk =   0.1066667
        k(   24) = (   0.2000000   0.5773503   0.0000000), wk =   0.0533333
        k(   25) = (   0.2666667   0.4618802   0.0000000), wk =   0.0533333
        k(   26) = (   0.2666667   0.5388603   0.0000000), wk =   0.1066667
        k(   27) = (   0.3333333   0.5773503   0.0000000), wk =   0.0177778

     Initial potential from superposition of free atoms

     starting charge    7.98607, renormalised to    8.00000

     negative rho (up, down):  1.078E-04 0.000E+00
     Starting wfcs are random

     Self-consistent Calculation

     iteration #  1     ecut=    50.00 Ry     beta= 0.70
     Davidson diagonalization with overlap
     ethr =  1.00E-02,  avg # of iterations = 11.4

     negative rho (up, down):  2.024E-07 0.000E+00

     total energy              =     -22.69511370 Ry
     estimated scf accuracy    <       0.28826253 Ry

[...]

     iteration #  4     ecut=    50.00 Ry     beta= 0.70
     Davidson diagonalization with overlap
     c_bands:  1 eigenvalues not converged
     ethr =  1.98E-06,  avg # of iterations =  6.0

[...]

     End of self-consistent calculation

          k = 0.0000 0.0000 0.0000 (  3943 PWs)   bands (ev):

   -24.8385 -12.7010  -6.5913  -1.0173  -0.2084   0.5685   0.9242   2.2494

[...]

     the Fermi energy is    -3.5896 ev

!    total energy              =     -22.73916281 Ry
     estimated scf accuracy    <          8.8E-09 Ry
     smearing contrib. (-TS)   =      -0.00003668 Ry
     internal energy E=F+TS    =     -22.73912613 Ry

     The total energy is F=E-TS. E is the sum of the following terms:
     one-electron contribution =    -442.53595212 Ry
     hartree contribution      =     222.03190047 Ry
     xc contribution           =      -7.30728656 Ry
     ewald contribution        =     205.07221209 Ry

     convergence has been achieved in   6 iterations

     Forces acting on atoms (cartesian axes, Ry/au):

     atom    1 type  1   force =     0.00000000    0.00000000    0.00000000
     atom    2 type  1   force =     0.00000000    0.00000000    0.00000000

     Total force =     0.000000     Total SCF correction =     0.000000

     Computing stress (Cartesian axis) and pressure

          total   stress  (Ry/bohr**3)                   (kbar)     P=       92.18
   0.00100366  -0.00000000   0.00000000          147.64       -0.00        0.00
  -0.00000000   0.00100366  -0.00000000           -0.00      147.64       -0.00
   0.00000000   0.00000000  -0.00012750            0.00        0.00      -18.76

     BFGS Geometry Optimization
     Energy error            =      0.0E+00
     Gradient error          =      0.0E+00
     Cell gradient error     =      1.0E-03

     number of scf cycles    =   1
     number of bfgs steps    =   0

     enthalpy new            =     -22.7391628051 Ry

     new trust radius        =       0.1295790099 bohr
     new conv_thr            =       0.0000000100 Ry

     new unit-cell volume =    700.62211 a.u.^3 (   103.82148 Ang^3 )
     density =      0.38420 g/cm^3

CELL_PARAMETERS (alat=  4.36000000)
   1.025091426  -0.000000000   0.000000000
  -0.512545713   0.887755216   0.000000000
   0.000000000   0.000000000   9.288990826

ATOMIC_POSITIONS (crystal)
C             0.3333333333        0.6666666667        0.5000000000
C             0.6666666667        0.3333333333        0.5000000000

     Writing output data file ./work/LiC436.save/
     NEW-OLD atomic charge density approx. for the potential

     negative rho (up, down):  5.912E-05 0.000E+00
     extrapolated charge    8.38617, renormalised to    8.00000

[...]

     Energy error            =      2.7E-02
     Gradient error          =      1.7E-26
     Cell gradient error     =      4.9E-04

[...]

     enthalpy old            =     -22.7391628051 Ry
     enthalpy new            =     -22.7661084023 Ry

     CASE: enthalpy_new < enthalpy_old

[...]

     Writing output data file ./work/LiC436.save/
     NEW-OLD atomic charge density approx. for the potential

     negative rho (up, down):  3.144E-06 0.000E+00
     extrapolated charge    8.06628, renormalised to    8.00000

[...]

     Writing output data file ./work/LiC436.save/
     NEW-OLD atomic charge density approx. for the potential
     extrapolated charge    8.00686, renormalised to    8.00000

[...]

     small trust_radius: resetting bfgs history

[...]

     Threshold (ethr) on eigenvalues was too large:
     Diagonalizing with lowered threshold

     Davidson diagonalization with overlap
     ethr =  6.23E-12,  avg # of iterations =  1.9

[...]

     Energy error            =      3.4E-10
     Gradient error          =      1.6E-26
     Cell gradient error     =      6.6E-08

     number of scf cycles    =   6
     number of bfgs steps    =   5

     enthalpy old            =     -22.7758650664 Ry
     enthalpy new            =     -22.7758650667 Ry

     CASE: enthalpy_new < enthalpy_old

     Message from routine bfgs:
     history already reset at previous step: stopping
     small trust_radius: resetting bfgs history

     new trust radius        =       0.0000089670 bohr
     new conv_thr            =            1.0E-10 Ry

     new unit-cell volume =    742.32413 a.u.^3 (   110.00109 Ang^3 )
     density =      0.36262 g/cm^3

[...]

ATOMIC_POSITIONS (crystal)
C             0.3333333333        0.6666666667        0.5000000000
C             0.6666666667        0.3333333333        0.5000000000

     Writing output data file ./work/LiC436.save/
     NEW-OLD atomic charge density approx. for the potential
     extrapolated charge    8.00003, renormalised to    8.00000

[...]

     Threshold (ethr) on eigenvalues was too large:
     Diagonalizing with lowered threshold

     Davidson diagonalization with overlap
     ethr =  2.91E-12,  avg # of iterations =  1.8

[...]

     Message from routine bfgs:
     history already reset at previous step: stopping
     Energy error            =      1.3E-10
     Gradient error          =      1.6E-26
     Cell gradient error     =      4.0E-08

     bfgs converged in   7 scf cycles and   6 bfgs steps
     (criteria: energy <  1.0E-04 Ry, force <  1.0E-08Ry/Bohr, cell <  1.0E-03kbar)

     End of BFGS Geometry Optimization

     Final enthalpy =     -22.7758650668 Ry

     File ./work/LiC436.bfgs deleted, as requested
Begin final coordinates
     new unit-cell volume =    742.32413 a.u.^3 (   110.00109 Ang^3 )
     density =      0.36262 g/cm^3

CELL_PARAMETERS (alat=  4.36000000)
   1.055157946  -0.000000000   0.000000000
  -0.527578973   0.913793586   0.000000000
   0.000000000   0.000000000   9.288990826

ATOMIC_POSITIONS (crystal)
C             0.3333333333        0.6666666667        0.5000000000
C             0.6666666667        0.3333333333        0.5000000000
End final coordinates

     Writing output data file ./work/LiC436.save/

     Final scf calculation at the relaxed structure.
     The G-vectors are recalculated for the final unit cell
     Results may differ from those at the preceding step.

     bravais-lattice index     =            4
     lattice parameter (alat)  =       4.3600  a.u.
     unit-cell volume          =     742.3241 (a.u.)^3
     number of atoms/cell      =            2
     number of atomic types    =            1
     number of electrons       =         8.00
     number of Kohn-Sham states=            8
     kinetic-energy cutoff     =      50.0000  Ry
     charge density cutoff     =     200.0000  Ry
     scf convergence threshold =      1.0E-10
     mixing beta               =       0.7000
     number of iterations used =            8  plain     mixing
     press convergence thresh. =      1.0E-03
     Exchange-correlation= PBE
                           (   1   4   3   4   0   0   0)

     celldm(1)=   4.360000  celldm(2)=   0.000000  celldm(3)=   9.288991
     celldm(4)=   0.000000  celldm(5)=   0.000000  celldm(6)=   0.000000

     crystal axes: (cart. coord. in units of alat)
               a(1) = (   1.055158  -0.000000   0.000000 )
               a(2) = (  -0.527579   0.913794   0.000000 )
               a(3) = (   0.000000   0.000000   9.288991 )

     reciprocal axes: (cart. coord. in units 2 pi/alat)
               b(1) = (  0.947725  0.547170  0.000000 )
               b(2) = (  0.000000  1.094339  0.000000 )
               b(3) = (  0.000000  0.000000  0.107654 )

     PseudoPot. # 1 for C  read from file:
     /home/yhkim/qe-6.7/pseudo/ONCV1/1.2/C_ONCV_PBE-1.2.upf
     MD5 check sum: 1a5f83a7b1f58d24996abe00ed223ac6
     Pseudo is Norm-conserving, Zval =  4.0
     Generated using ONCVPSP code by D. R. Hamann
     Using radial grid of  602 points,  4 beta functions with:
                l(1) =   0
                l(2) =   0
                l(3) =   1
                l(4) =   1

     atomic species   valence    mass     pseudopotential
        C              4.00    12.01070     C ( 1.00)

     24 Sym. Ops., with inversion, found

   Cartesian axes

     site n.     atom                  positions (alat units)
         1           C   tau(   1) = (  -0.0000000   0.6091957   4.6444954  )
         2           C   tau(   2) = (   0.5275790   0.3045979   4.6444954  )

     number of k points=    27  Methfessel-Paxton smearing, width (Ry)=  0.0100
                       cart. coord. in units 2pi/alat
        k(    1) = (   0.0000000   0.0000000   0.0000000), wk =   0.0088889
        k(    2) = (   0.0000000   0.0729559   0.0000000), wk =   0.0533333
        k(    3) = (   0.0000000   0.1459119   0.0000000), wk =   0.0533333
        k(    4) = (   0.0000000   0.2188678   0.0000000), wk =   0.0533333
        k(    5) = (   0.0000000   0.2918237   0.0000000), wk =   0.0533333
        k(    6) = (   0.0000000   0.3647797   0.0000000), wk =   0.0533333
        k(    7) = (   0.0000000   0.4377356   0.0000000), wk =   0.0533333
        k(    8) = (   0.0000000   0.5106916   0.0000000), wk =   0.0533333
        k(    9) = (   0.0631817   0.1094339   0.0000000), wk =   0.0533333
        k(   10) = (   0.0631817   0.1823898   0.0000000), wk =   0.1066667
        k(   11) = (   0.0631817   0.2553458   0.0000000), wk =   0.1066667
        k(   12) = (   0.0631817   0.3283017   0.0000000), wk =   0.1066667
        k(   13) = (   0.0631817   0.4012576   0.0000000), wk =   0.1066667
        k(   14) = (   0.0631817   0.4742136   0.0000000), wk =   0.1066667
        k(   15) = (   0.0631817   0.5471695   0.0000000), wk =   0.0533333
        k(   16) = (   0.1263634   0.2188678   0.0000000), wk =   0.0533333
        k(   17) = (   0.1263634   0.2918237   0.0000000), wk =   0.1066667
        k(   18) = (   0.1263634   0.3647797   0.0000000), wk =   0.1066667
        k(   19) = (   0.1263634   0.4377356   0.0000000), wk =   0.1066667
        k(   20) = (   0.1263634   0.5106916   0.0000000), wk =   0.1066667
        k(   21) = (   0.1895451   0.3283017   0.0000000), wk =   0.0533333
        k(   22) = (   0.1895451   0.4012576   0.0000000), wk =   0.1066667
        k(   23) = (   0.1895451   0.4742136   0.0000000), wk =   0.1066667
        k(   24) = (   0.1895451   0.5471695   0.0000000), wk =   0.0533333
        k(   25) = (   0.2527268   0.4377356   0.0000000), wk =   0.0533333
        k(   26) = (   0.2527268   0.5106916   0.0000000), wk =   0.1066667
        k(   27) = (   0.3159085   0.5471695   0.0000000), wk =   0.0177778

     Initial potential from superposition of free atoms

     starting charge    7.98607, renormalised to    8.00000

     negative rho (up, down):  1.108E-04 0.000E+00
     Starting wfcs are random

     Self-consistent Calculation

     iteration #  1     ecut=    50.00 Ry     beta= 0.70
     Davidson diagonalization with overlap
     c_bands:  5 eigenvalues not converged
     c_bands:  5 eigenvalues not converged
     c_bands:  4 eigenvalues not converged
     c_bands:  4 eigenvalues not converged
     c_bands:  4 eigenvalues not converged
     c_bands:  2 eigenvalues not converged
     c_bands:  2 eigenvalues not converged
     c_bands:  3 eigenvalues not converged
     c_bands:  5 eigenvalues not converged
     c_bands:  4 eigenvalues not converged
     c_bands:  4 eigenvalues not converged
     c_bands:  3 eigenvalues not converged
     c_bands:  3 eigenvalues not converged
     c_bands:  3 eigenvalues not converged
     c_bands:  4 eigenvalues not converged
     c_bands:  4 eigenvalues not converged
     c_bands:  4 eigenvalues not converged
     c_bands:  3 eigenvalues not converged
     c_bands:  3 eigenvalues not converged
     c_bands:  4 eigenvalues not converged
     c_bands:  3 eigenvalues not converged
     c_bands:  3 eigenvalues not converged
     c_bands:  3 eigenvalues not converged
     c_bands:  3 eigenvalues not converged
     c_bands:  3 eigenvalues not converged
     c_bands:  3 eigenvalues not converged
     ethr =  1.00E-06,  avg # of iterations = 21.5

[...]

     negative rho (up, down):  2.648E-06 0.000E+00

[...]

     total energy              =     -22.78913391 Ry
     estimated scf accuracy    <          1.1E-09 Ry

     iteration #  7     ecut=    50.00 Ry     beta= 0.70
     Davidson diagonalization with overlap
     ethr =  1.38E-11,  avg # of iterations =  2.9

     End of self-consistent calculation

[...]

          k = 0.3159 0.5472 0.0000 (  4395 PWs)   bands (ev):

   -16.8769 -16.8769 -15.0142  -4.1306  -4.1306   6.5512   9.0086   9.0087

     the Fermi energy is    -4.1306 ev

!    total energy              =     -22.78913391 Ry
     estimated scf accuracy    <          1.1E-11 Ry
     smearing contrib. (-TS)   =      -0.00005015 Ry
     internal energy E=F+TS    =     -22.78908376 Ry

     The total energy is F=E-TS. E is the sum of the following terms:
     one-electron contribution =    -396.93634221 Ry
     hartree contribution      =     199.11295990 Ry
     xc contribution           =      -7.06535744 Ry
     ewald contribution        =     182.09965599 Ry

     convergence has been achieved in   7 iterations

     Forces acting on atoms (cartesian axes, Ry/au):

     atom    1 type  1   force =     0.00000000    0.00000000    0.00000000
     atom    2 type  1   force =    -0.00000000   -0.00000000    0.00000000

     Total force =     0.000000     Total SCF correction =     0.000000

     Computing stress (Cartesian axis) and pressure

          total   stress  (Ry/bohr**3)                   (kbar)     P=        0.93
   0.00006513   0.00000000  -0.00000000            9.58        0.00       -0.00
   0.00000000   0.00006513   0.00000000            0.00        9.58        0.00
   0.00000000   0.00000000  -0.00011135            0.00        0.00      -16.38

     Writing output data file ./work/LiC436.save/

     General routines

     Parallel routines

   This run was terminated on:  14:11:25  19Jan2024

   JOB DONE.