     Program PWSCF v.6.7MaX starts on 19Jan2024 at 13:39:51

     R & G space division:  proc/nbgrp/npool/nimage =      32
     Waiting for input...
     Reading input from standard input

     Current dimensions of program PWSCF are:
     Max number of different atomic species (ntypx) = 10
     Max number of k-points (npk) =  40000
     Max angular momentum in pseudopotentials (lmaxx) =  3
     Message from routine read_pp_mesh:
     mesh size missing, using the one in header

     Subspace diagonalization in iterative solution of the eigenvalue problem:
     a serial algorithm will be used

     bravais-lattice index     =            4
     lattice parameter (alat)  =       4.4800  a.u.
     unit-cell volume          =     703.9498 (a.u.)^3
     number of atoms/cell      =            2
     number of atomic types    =            1
     number of electrons       =         8.00
     number of Kohn-Sham states=            8
     kinetic-energy cutoff     =      50.0000  Ry
     charge density cutoff     =     200.0000  Ry
     scf convergence threshold =      1.0E-08
     mixing beta               =       0.7000
     number of iterations used =            8  plain     mixing
     energy convergence thresh.=      1.0E-04
     force convergence thresh. =      1.0E-08
     press convergence thresh. =      1.0E-03
     Exchange-correlation= PBE
                           (   1   4   3   4   0   0   0)
     nstep                     =           50

     celldm(1)=   4.480000  celldm(2)=   0.000000  celldm(3)=   9.040179
     celldm(4)=   0.000000  celldm(5)=   0.000000  celldm(6)=   0.000000

     crystal axes: (cart. coord. in units of alat)
               a(1) = (   1.000000   0.000000   0.000000 )
               a(2) = (  -0.500000   0.866025   0.000000 )
               a(3) = (   0.000000   0.000000   9.040179 )

     reciprocal axes: (cart. coord. in units 2 pi/alat)
               b(1) = (  1.000000  0.577350  0.000000 )
               b(2) = (  0.000000  1.154701  0.000000 )
               b(3) = (  0.000000  0.000000  0.110617 )

     PseudoPot. # 1 for C  read from file:
     /home/yhkim/qe-6.7/pseudo/ONCV1/1.2/C_ONCV_PBE-1.2.upf
     MD5 check sum: 1a5f83a7b1f58d24996abe00ed223ac6
     Pseudo is Norm-conserving, Zval =  4.0
     Generated using ONCVPSP code by D. R. Hamann
     Using radial grid of  602 points,  4 beta functions with:
                l(1) =   0
                l(2) =   0
                l(3) =   1
                l(4) =   1

     atomic species   valence    mass     pseudopotential
        C              4.00    12.01070     C ( 1.00)

     24 Sym. Ops., with inversion, found

   Cartesian axes

     site n.     atom                  positions (alat units)
         1           C   tau(   1) = (  -0.0000000   0.5773503   4.5200893  )
         2           C   tau(   2) = (   0.5000000   0.2886751   4.5200893  )

     number of k points=    27  Methfessel-Paxton smearing, width (Ry)=  0.0100
                       cart. coord. in units 2pi/alat
        k(    1) = (   0.0000000   0.0000000   0.0000000), wk =   0.0088889
        k(    2) = (   0.0000000   0.0769800   0.0000000), wk =   0.0533333
        k(    3) = (   0.0000000   0.1539601   0.0000000), wk =   0.0533333
        k(    4) = (   0.0000000   0.2309401   0.0000000), wk =   0.0533333
        k(    5) = (   0.0000000   0.3079201   0.0000000), wk =   0.0533333
        k(    6) = (   0.0000000   0.3849002   0.0000000), wk =   0.0533333
        k(    7) = (   0.0000000   0.4618802   0.0000000), wk =   0.0533333
        k(    8) = (   0.0000000   0.5388603   0.0000000), wk =   0.0533333
        k(    9) = (   0.0666667   0.1154701   0.0000000), wk =   0.0533333
        k(   10) = (   0.0666667   0.1924501   0.0000000), wk =   0.1066667
        k(   11) = (   0.0666667   0.2694301   0.0000000), wk =   0.1066667
        k(   12) = (   0.0666667   0.3464102   0.0000000), wk =   0.1066667
        k(   13) = (   0.0666667   0.4233902   0.0000000), wk =   0.1066667
        k(   14) = (   0.0666667   0.5003702   0.0000000), wk =   0.1066667
        k(   15) = (   0.0666667   0.5773503   0.0000000), wk =   0.0533333
        k(   16) = (   0.1333333   0.2309401   0.0000000), wk =   0.0533333
        k(   17) = (   0.1333333   0.3079201   0.0000000), wk =   0.1066667
        k(   18) = (   0.1333333   0.3849002   0.0000000), wk =   0.1066667
        k(   19) = (   0.1333333   0.4618802   0.0000000), wk =   0.1066667
        k(   20) = (   0.1333333   0.5388603   0.0000000), wk =   0.1066667
        k(   21) = (   0.2000000   0.3464102   0.0000000), wk =   0.0533333
        k(   22) = (   0.2000000   0.4233902   0.0000000), wk =   0.1066667
        k(   23) = (   0.2000000   0.5003702   0.0000000), wk =   0.1066667
        k(   24) = (   0.2000000   0.5773503   0.0000000), wk =   0.0533333
        k(   25) = (   0.2666667   0.4618802   0.0000000), wk =   0.0533333
        k(   26) = (   0.2666667   0.5388603   0.0000000), wk =   0.1066667
        k(   27) = (   0.3333333   0.5773503   0.0000000), wk =   0.0177778

     Initial potential from superposition of free atoms

     starting charge    7.98607, renormalised to    8.00000

     negative rho (up, down):  1.119E-04 0.000E+00
     Starting wfcs are random

     Self-consistent Calculation

     iteration #  1     ecut=    50.00 Ry     beta= 0.70
     Davidson diagonalization with overlap
     ethr =  1.00E-02,  avg # of iterations = 11.7

     negative rho (up, down):  4.497E-08 0.000E+00

     total energy              =     -22.73456794 Ry
     estimated scf accuracy    <       0.23302183 Ry

[...]

     iteration #  3     ecut=    50.00 Ry     beta= 0.70
     Davidson diagonalization with overlap
     c_bands:  1 eigenvalues not converged
     ethr =  2.81E-05,  avg # of iterations = 11.3

[...]

     End of self-consistent calculation

          k = 0.0000 0.0000 0.0000 (  4111 PWs)   bands (ev):

   -24.3964 -12.3425  -6.8903  -6.8903  -1.0023  -0.2061   0.5758   0.9314

[...]

     the Fermi energy is    -3.8857 ev

!    total energy              =     -22.77387247 Ry
     estimated scf accuracy    <          3.4E-10 Ry
     smearing contrib. (-TS)   =      -0.00005015 Ry
     internal energy E=F+TS    =     -22.77382232 Ry

     The total energy is F=E-TS. E is the sum of the following terms:
     one-electron contribution =    -418.85255668 Ry
     hartree contribution      =     210.13008132 Ry
     xc contribution           =      -7.18347488 Ry
     ewald contribution        =     193.13212792 Ry

     convergence has been achieved in   6 iterations

     Forces acting on atoms (cartesian axes, Ry/au):

     atom    1 type  1   force =     0.00000000    0.00000000    0.00000000
     atom    2 type  1   force =     0.00000000    0.00000000    0.00000000

     Total force =     0.000000     Total SCF correction =     0.000000

     Computing stress (Cartesian axis) and pressure

          total   stress  (Ry/bohr**3)                   (kbar)     P=       41.26
   0.00048023   0.00000000   0.00000000           70.64        0.00        0.00
   0.00000000   0.00048023  -0.00000000            0.00       70.64       -0.00
  -0.00000000   0.00000000  -0.00011899           -0.00        0.00      -17.50

     BFGS Geometry Optimization
     Energy error            =      0.0E+00
     Gradient error          =      0.0E+00
     Cell gradient error     =      4.8E-04

     number of scf cycles    =   1
     number of bfgs steps    =   0

     enthalpy new            =     -22.7738724668 Ry

     new trust radius        =       0.0637072925 bohr
     new conv_thr            =       0.0000000100 Ry

     new unit-cell volume =    720.95411 a.u.^3 (   106.83438 Ang^3 )
     density =      0.37337 g/cm^3

CELL_PARAMETERS (alat=  4.48000000)
   1.012005723   0.000000000   0.000000000
  -0.506002861   0.876422665   0.000000000
   0.000000000   0.000000000   9.040178571

ATOMIC_POSITIONS (crystal)
C             0.3333333333        0.6666666667        0.5000000000
C             0.6666666667        0.3333333333        0.5000000000

     Writing output data file ./work/LiC448.save/
     NEW-OLD atomic charge density approx. for the potential

     negative rho (up, down):  1.918E-05 0.000E+00
     extrapolated charge    8.18836, renormalised to    8.00000

[...]

          k =-0.0000 0.0761 0.0000 (  4117 PWs)   bands (ev):

[...]

          k =-0.0000 0.5325 0.0000 (  4216 PWs)   bands (ev):

[...]

     Energy error            =      6.3E-03
     Gradient error          =      1.7E-26
     Cell gradient error     =      2.7E-04

[...]

     enthalpy old            =     -22.7738724668 Ry
     enthalpy new            =     -22.7802071975 Ry

     CASE: enthalpy_new < enthalpy_old

[...]

     Writing output data file ./work/LiC448.save/
     NEW-OLD atomic charge density approx. for the potential

     negative rho (up, down):  6.515E-06 0.000E+00
     extrapolated charge    8.06009, renormalised to    8.00000

[...]

     Writing output data file ./work/LiC448.save/
     NEW-OLD atomic charge density approx. for the potential
     extrapolated charge    8.00361, renormalised to    8.00000

[...]

     Threshold (ethr) on eigenvalues was too large:
     Diagonalizing with lowered threshold

     Davidson diagonalization with overlap
     ethr =  4.88E-08,  avg # of iterations =  1.0

[...]

     small trust_radius: resetting bfgs history

[...]

     Energy error            =      7.5E-11
     Gradient error          =      1.7E-26
     Cell gradient error     =      2.5E-08

     number of scf cycles    =   6
     number of bfgs steps    =   5

     enthalpy old            =     -22.7834601581 Ry
     enthalpy new            =     -22.7834601582 Ry

     CASE: enthalpy_new < enthalpy_old

     Message from routine bfgs:
     history already reset at previous step: stopping
     small trust_radius: resetting bfgs history

     new trust radius        =       0.0000034136 bohr
     new conv_thr            =            1.0E-10 Ry

     new unit-cell volume =    745.84199 a.u.^3 (   110.52238 Ang^3 )
     density =      0.36091 g/cm^3

[...]

ATOMIC_POSITIONS (crystal)
C             0.3333333333        0.6666666667        0.5000000000
C             0.6666666667        0.3333333333        0.5000000000

     Writing output data file ./work/LiC448.save/
     NEW-OLD atomic charge density approx. for the potential
     extrapolated charge    8.00001, renormalised to    8.00000

[...]

     Threshold (ethr) on eigenvalues was too large:
     Diagonalizing with lowered threshold

     Davidson diagonalization with overlap
     ethr =  1.19E-12,  avg # of iterations =  1.7

[...]

     Message from routine bfgs:
     history already reset at previous step: stopping
     Energy error            =      4.0E-11
     Gradient error          =      0.0E+00
     Cell gradient error     =      1.8E-08

     bfgs converged in   7 scf cycles and   6 bfgs steps
     (criteria: energy <  1.0E-04 Ry, force <  1.0E-08Ry/Bohr, cell <  1.0E-03kbar)

     End of BFGS Geometry Optimization

     Final enthalpy =     -22.7834601582 Ry

     File ./work/LiC448.bfgs deleted, as requested
Begin final coordinates
     new unit-cell volume =    745.84199 a.u.^3 (   110.52238 Ang^3 )
     density =      0.36091 g/cm^3

CELL_PARAMETERS (alat=  4.48000000)
   1.029325127  -0.000000000   0.000000000
  -0.514662564   0.891421709   0.000000000
   0.000000000   0.000000000   9.040178571

ATOMIC_POSITIONS (crystal)
C             0.3333333333        0.6666666667        0.5000000000
C             0.6666666667        0.3333333333        0.5000000000
End final coordinates

     Writing output data file ./work/LiC448.save/

     Final scf calculation at the relaxed structure.
     The G-vectors are recalculated for the final unit cell
     Results may differ from those at the preceding step.

     bravais-lattice index     =            4
     lattice parameter (alat)  =       4.4800  a.u.
     unit-cell volume          =     745.8420 (a.u.)^3
     number of atoms/cell      =            2
     number of atomic types    =            1
     number of electrons       =         8.00
     number of Kohn-Sham states=            8
     kinetic-energy cutoff     =      50.0000  Ry
     charge density cutoff     =     200.0000  Ry
     scf convergence threshold =      1.0E-10
     mixing beta               =       0.7000
     number of iterations used =            8  plain     mixing
     press convergence thresh. =      1.0E-03
     Exchange-correlation= PBE
                           (   1   4   3   4   0   0   0)

     celldm(1)=   4.480000  celldm(2)=   0.000000  celldm(3)=   9.040179
     celldm(4)=   0.000000  celldm(5)=   0.000000  celldm(6)=   0.000000

     crystal axes: (cart. coord. in units of alat)
               a(1) = (   1.029325  -0.000000   0.000000 )
               a(2) = (  -0.514663   0.891422   0.000000 )
               a(3) = (   0.000000   0.000000   9.040179 )

     reciprocal axes: (cart. coord. in units 2 pi/alat)
               b(1) = (  0.971510  0.560902  0.000000 )
               b(2) = (  0.000000  1.121804  0.000000 )
               b(3) = (  0.000000  0.000000  0.110617 )

     PseudoPot. # 1 for C  read from file:
     /home/yhkim/qe-6.7/pseudo/ONCV1/1.2/C_ONCV_PBE-1.2.upf
     MD5 check sum: 1a5f83a7b1f58d24996abe00ed223ac6
     Pseudo is Norm-conserving, Zval =  4.0
     Generated using ONCVPSP code by D. R. Hamann
     Using radial grid of  602 points,  4 beta functions with:
                l(1) =   0
                l(2) =   0
                l(3) =   1
                l(4) =   1

     atomic species   valence    mass     pseudopotential
        C              4.00    12.01070     C ( 1.00)

     24 Sym. Ops., with inversion, found

   Cartesian axes

     site n.     atom                  positions (alat units)
         1           C   tau(   1) = (  -0.0000000   0.5942811   4.5200893  )
         2           C   tau(   2) = (   0.5146626   0.2971406   4.5200893  )

     number of k points=    27  Methfessel-Paxton smearing, width (Ry)=  0.0100
                       cart. coord. in units 2pi/alat
        k(    1) = (   0.0000000   0.0000000   0.0000000), wk =   0.0088889
        k(    2) = (   0.0000000   0.0747869   0.0000000), wk =   0.0533333
        k(    3) = (   0.0000000   0.1495738   0.0000000), wk =   0.0533333
        k(    4) = (   0.0000000   0.2243607   0.0000000), wk =   0.0533333
        k(    5) = (   0.0000000   0.2991476   0.0000000), wk =   0.0533333
        k(    6) = (   0.0000000   0.3739345   0.0000000), wk =   0.0533333
        k(    7) = (   0.0000000   0.4487214   0.0000000), wk =   0.0533333
        k(    8) = (   0.0000000   0.5235083   0.0000000), wk =   0.0533333
        k(    9) = (   0.0647674   0.1121804   0.0000000), wk =   0.0533333
        k(   10) = (   0.0647674   0.1869673   0.0000000), wk =   0.1066667
        k(   11) = (   0.0647674   0.2617542   0.0000000), wk =   0.1066667
        k(   12) = (   0.0647674   0.3365411   0.0000000), wk =   0.1066667
        k(   13) = (   0.0647674   0.4113280   0.0000000), wk =   0.1066667
        k(   14) = (   0.0647674   0.4861149   0.0000000), wk =   0.1066667
        k(   15) = (   0.0647674   0.5609018   0.0000000), wk =   0.0533333
        k(   16) = (   0.1295347   0.2243607   0.0000000), wk =   0.0533333
        k(   17) = (   0.1295347   0.2991476   0.0000000), wk =   0.1066667
        k(   18) = (   0.1295347   0.3739345   0.0000000), wk =   0.1066667
        k(   19) = (   0.1295347   0.4487214   0.0000000), wk =   0.1066667
        k(   20) = (   0.1295347   0.5235083   0.0000000), wk =   0.1066667
        k(   21) = (   0.1943021   0.3365411   0.0000000), wk =   0.0533333
        k(   22) = (   0.1943021   0.4113280   0.0000000), wk =   0.1066667
        k(   23) = (   0.1943021   0.4861149   0.0000000), wk =   0.1066667
        k(   24) = (   0.1943021   0.5609018   0.0000000), wk =   0.0533333
        k(   25) = (   0.2590694   0.4487214   0.0000000), wk =   0.0533333
        k(   26) = (   0.2590694   0.5235083   0.0000000), wk =   0.1066667
        k(   27) = (   0.3238368   0.5609018   0.0000000), wk =   0.0177778

     Initial potential from superposition of free atoms

     starting charge    7.98607, renormalised to    8.00000

     negative rho (up, down):  1.111E-04 0.000E+00
     Starting wfcs are random

     Self-consistent Calculation

     iteration #  1     ecut=    50.00 Ry     beta= 0.70
     Davidson diagonalization with overlap
     c_bands:  1 eigenvalues not converged
     c_bands:  3 eigenvalues not converged
     c_bands:  5 eigenvalues not converged
     c_bands:  4 eigenvalues not converged
     c_bands:  4 eigenvalues not converged
     c_bands:  4 eigenvalues not converged
     c_bands:  2 eigenvalues not converged
     c_bands:  2 eigenvalues not converged
     c_bands:  3 eigenvalues not converged
     c_bands:  4 eigenvalues not converged
     c_bands:  4 eigenvalues not converged
     c_bands:  4 eigenvalues not converged
     c_bands:  3 eigenvalues not converged
     c_bands:  3 eigenvalues not converged
     c_bands:  2 eigenvalues not converged
     c_bands:  4 eigenvalues not converged
     c_bands:  4 eigenvalues not converged
     c_bands:  3 eigenvalues not converged
     c_bands:  3 eigenvalues not converged
     c_bands:  3 eigenvalues not converged
     c_bands:  4 eigenvalues not converged
     c_bands:  3 eigenvalues not converged
     c_bands:  3 eigenvalues not converged
     c_bands:  3 eigenvalues not converged
     c_bands:  3 eigenvalues not converged
     c_bands:  3 eigenvalues not converged
     c_bands:  3 eigenvalues not converged
     ethr =  1.00E-06,  avg # of iterations = 22.2

[...]

     negative rho (up, down):  2.735E-06 0.000E+00

[...]

     total energy              =     -22.78973679 Ry
     estimated scf accuracy    <          8.8E-10 Ry

     iteration #  7     ecut=    50.00 Ry     beta= 0.70
     Davidson diagonalization with overlap
     ethr =  1.10E-11,  avg # of iterations =  3.0

     End of self-consistent calculation

[...]

          k = 0.3238 0.5609 0.0000 (  4407 PWs)   bands (ev):

   -16.8769 -16.8769 -14.9818  -4.1512  -4.1512   6.5193   8.9421   8.9425

     the Fermi energy is    -4.1512 ev

!    total energy              =     -22.78973679 Ry
     estimated scf accuracy    <          8.3E-12 Ry
     smearing contrib. (-TS)   =      -0.00005015 Ry
     internal energy E=F+TS    =     -22.78968664 Ry

     The total energy is F=E-TS. E is the sum of the following terms:
     one-electron contribution =    -395.04185116 Ry
     hartree contribution      =     198.16075190 Ry
     xc contribution           =      -7.05504367 Ry
     ewald contribution        =     181.14645629 Ry

     convergence has been achieved in   7 iterations

     Forces acting on atoms (cartesian axes, Ry/au):

     atom    1 type  1   force =    -0.00000000   -0.00000000    0.00000000
     atom    2 type  1   force =     0.00000000    0.00000000    0.00000000

     Total force =     0.000000     Total SCF correction =     0.000000

     Computing stress (Cartesian axis) and pressure

          total   stress  (Ry/bohr**3)                   (kbar)     P=       -2.26
   0.00003229   0.00000000   0.00000000            4.75        0.00        0.00
   0.00000000   0.00003229   0.00000000            0.00        4.75        0.00
  -0.00000000  -0.00000000  -0.00011068           -0.00       -0.00      -16.28

     Writing output data file ./work/LiC448.save/

     General routines

     Parallel routines

   This run was terminated on:  13:40: 8  19Jan2024

   JOB DONE.