     Program PWSCF v.6.7MaX starts on 19Jan2024 at 14: 5:12

     R & G space division:  proc/nbgrp/npool/nimage =      32
     Waiting for input...
     Reading input from standard input

     Current dimensions of program PWSCF are:
     Max number of different atomic species (ntypx) = 10
     Max number of k-points (npk) =  40000
     Max angular momentum in pseudopotentials (lmaxx) =  3
     Message from routine read_pp_mesh:
     mesh size missing, using the one in header

     Subspace diagonalization in iterative solution of the eigenvalue problem:
     a serial algorithm will be used

     bravais-lattice index     =            4
     lattice parameter (alat)  =       4.2100  a.u.
     unit-cell volume          =     621.6556 (a.u.)^3
     number of atoms/cell      =            2
     number of atomic types    =            1
     number of electrons       =         8.00
     number of Kohn-Sham states=            8
     kinetic-energy cutoff     =      50.0000  Ry
     charge density cutoff     =     200.0000  Ry
     scf convergence threshold =      1.0E-08
     mixing beta               =       0.7000
     number of iterations used =            8  plain     mixing
     energy convergence thresh.=      1.0E-04
     force convergence thresh. =      1.0E-08
     press convergence thresh. =      1.0E-03
     Exchange-correlation= PBE
                           (   1   4   3   4   0   0   0)
     nstep                     =           50

     celldm(1)=   4.210000  celldm(2)=   0.000000  celldm(3)=   9.619952
     celldm(4)=   0.000000  celldm(5)=   0.000000  celldm(6)=   0.000000

     crystal axes: (cart. coord. in units of alat)
               a(1) = (   1.000000   0.000000   0.000000 )
               a(2) = (  -0.500000   0.866025   0.000000 )
               a(3) = (   0.000000   0.000000   9.619952 )

     reciprocal axes: (cart. coord. in units 2 pi/alat)
               b(1) = (  1.000000  0.577350  0.000000 )
               b(2) = (  0.000000  1.154701  0.000000 )
               b(3) = (  0.000000  0.000000  0.103951 )

     PseudoPot. # 1 for C  read from file:
     /home/yhkim/qe-6.7/pseudo/ONCV1/1.2/C_ONCV_PBE-1.2.upf
     MD5 check sum: 1a5f83a7b1f58d24996abe00ed223ac6
     Pseudo is Norm-conserving, Zval =  4.0
     Generated using ONCVPSP code by D. R. Hamann
     Using radial grid of  602 points,  4 beta functions with:
                l(1) =   0
                l(2) =   0
                l(3) =   1
                l(4) =   1

     atomic species   valence    mass     pseudopotential
        C              4.00    12.01070     C ( 1.00)

     24 Sym. Ops., with inversion, found

   Cartesian axes

     site n.     atom                  positions (alat units)
         1           C   tau(   1) = (  -0.0000000   0.5773503   4.8099762  )
         2           C   tau(   2) = (   0.5000000   0.2886751   4.8099762  )

     number of k points=    27  Methfessel-Paxton smearing, width (Ry)=  0.0100
                       cart. coord. in units 2pi/alat
        k(    1) = (   0.0000000   0.0000000   0.0000000), wk =   0.0088889
        k(    2) = (   0.0000000   0.0769800   0.0000000), wk =   0.0533333
        k(    3) = (   0.0000000   0.1539601   0.0000000), wk =   0.0533333
        k(    4) = (   0.0000000   0.2309401   0.0000000), wk =   0.0533333
        k(    5) = (   0.0000000   0.3079201   0.0000000), wk =   0.0533333
        k(    6) = (   0.0000000   0.3849002   0.0000000), wk =   0.0533333
        k(    7) = (   0.0000000   0.4618802   0.0000000), wk =   0.0533333
        k(    8) = (   0.0000000   0.5388603   0.0000000), wk =   0.0533333
        k(    9) = (   0.0666667   0.1154701   0.0000000), wk =   0.0533333
        k(   10) = (   0.0666667   0.1924501   0.0000000), wk =   0.1066667
        k(   11) = (   0.0666667   0.2694301   0.0000000), wk =   0.1066667
        k(   12) = (   0.0666667   0.3464102   0.0000000), wk =   0.1066667
        k(   13) = (   0.0666667   0.4233902   0.0000000), wk =   0.1066667
        k(   14) = (   0.0666667   0.5003702   0.0000000), wk =   0.1066667
        k(   15) = (   0.0666667   0.5773503   0.0000000), wk =   0.0533333
        k(   16) = (   0.1333333   0.2309401   0.0000000), wk =   0.0533333
        k(   17) = (   0.1333333   0.3079201   0.0000000), wk =   0.1066667
        k(   18) = (   0.1333333   0.3849002   0.0000000), wk =   0.1066667
        k(   19) = (   0.1333333   0.4618802   0.0000000), wk =   0.1066667
        k(   20) = (   0.1333333   0.5388603   0.0000000), wk =   0.1066667
        k(   21) = (   0.2000000   0.3464102   0.0000000), wk =   0.0533333
        k(   22) = (   0.2000000   0.4233902   0.0000000), wk =   0.1066667
        k(   23) = (   0.2000000   0.5003702   0.0000000), wk =   0.1066667
        k(   24) = (   0.2000000   0.5773503   0.0000000), wk =   0.0533333
        k(   25) = (   0.2666667   0.4618802   0.0000000), wk =   0.0533333
        k(   26) = (   0.2666667   0.5388603   0.0000000), wk =   0.1066667
        k(   27) = (   0.3333333   0.5773503   0.0000000), wk =   0.0177778

     Initial potential from superposition of free atoms

     starting charge    7.98607, renormalised to    8.00000

     negative rho (up, down):  1.071E-04 0.000E+00
     Starting wfcs are random

     Self-consistent Calculation

     iteration #  1     ecut=    50.00 Ry     beta= 0.70
     Davidson diagonalization with overlap
     ethr =  1.00E-02,  avg # of iterations = 11.4

     negative rho (up, down):  1.300E-07 0.000E+00

     total energy              =     -22.61069581 Ry
     estimated scf accuracy    <       0.37545848 Ry

[...]

     End of self-consistent calculation

          k = 0.0000 0.0000 0.0000 (  3739 PWs)   bands (ev):

   -25.3715 -13.1654  -6.1063  -1.0328  -0.2108   0.5598   0.9150   2.2386

[...]

     the Fermi energy is    -3.2139 ev

!    total energy              =     -22.66825603 Ry
     estimated scf accuracy    <          4.5E-09 Ry
     smearing contrib. (-TS)   =      -0.00003668 Ry
     internal energy E=F+TS    =     -22.66821935 Ry

     The total energy is F=E-TS. E is the sum of the following terms:
     one-electron contribution =    -475.11450739 Ry
     hartree contribution      =     238.41694682 Ry
     xc contribution           =      -7.47515340 Ry
     ewald contribution        =     221.50449462 Ry

     convergence has been achieved in   6 iterations

     Forces acting on atoms (cartesian axes, Ry/au):

     atom    1 type  1   force =    -0.00000000   -0.00000000    0.00000000
     atom    2 type  1   force =     0.00000000    0.00000000    0.00000000

     Total force =     0.000000     Total SCF correction =     0.000000

     Computing stress (Cartesian axis) and pressure

          total   stress  (Ry/bohr**3)                   (kbar)     P=      175.09
   0.00185528   0.00000000  -0.00000000          272.92        0.00       -0.00
   0.00000000   0.00185528   0.00000000            0.00      272.92        0.00
   0.00000000  -0.00000000  -0.00013987            0.00       -0.00      -20.58

     BFGS Geometry Optimization
     Energy error            =      0.0E+00
     Gradient error          =      1.7E-26
     Cell gradient error     =      1.9E-03

     number of scf cycles    =   1
     number of bfgs steps    =   0

     enthalpy new            =     -22.6682560267 Ry

     new trust radius        =       0.2312881426 bohr
     new conv_thr            =       0.0000000100 Ry

     new unit-cell volume =    680.66007 a.u.^3 (   100.86342 Ang^3 )
     density =      0.39547 g/cm^3

CELL_PARAMETERS (alat=  4.21000000)
   1.046381891   0.000000000   0.000000000
  -0.523190946   0.906193300   0.000000000
   0.000000000   0.000000000   9.619952494

ATOMIC_POSITIONS (crystal)
C             0.3333333333        0.6666666667        0.5000000000
C             0.6666666667        0.3333333333        0.5000000000

     Writing output data file ./work/LiC421.save/
     NEW-OLD atomic charge density approx. for the potential

     negative rho (up, down):  1.317E-04 0.000E+00
     extrapolated charge    8.69229, renormalised to    8.00000

[...]

     iteration #  1     ecut=    50.00 Ry     beta= 0.70
     Davidson diagonalization with overlap
     c_bands:  1 eigenvalues not converged
     c_bands:  1 eigenvalues not converged
     c_bands:  2 eigenvalues not converged
     c_bands:  2 eigenvalues not converged
     c_bands:  4 eigenvalues not converged
     c_bands:  4 eigenvalues not converged
     c_bands:  5 eigenvalues not converged
     c_bands:  3 eigenvalues not converged
     c_bands:  2 eigenvalues not converged
     c_bands:  3 eigenvalues not converged
     c_bands:  3 eigenvalues not converged
     c_bands:  4 eigenvalues not converged
     c_bands:  5 eigenvalues not converged
     c_bands:  4 eigenvalues not converged
     c_bands:  3 eigenvalues not converged
     c_bands:  5 eigenvalues not converged
     c_bands:  5 eigenvalues not converged
     c_bands:  5 eigenvalues not converged
     c_bands:  4 eigenvalues not converged
     c_bands:  5 eigenvalues not converged
     c_bands:  5 eigenvalues not converged
     c_bands:  2 eigenvalues not converged
     ethr =  1.00E-06,  avg # of iterations = 23.9

[...]

          k =-0.0000 0.0736 0.0000 (  3743 PWs)   bands (ev):

[...]

     Energy error            =      7.6E-02
     Gradient error          =      0.0E+00
     Cell gradient error     =      7.3E-04

[...]

     enthalpy old            =     -22.6682560267 Ry
     enthalpy new            =     -22.7442158898 Ry

     CASE: enthalpy_new < enthalpy_old

[...]

     Writing output data file ./work/LiC421.save/
     NEW-OLD atomic charge density approx. for the potential

     negative rho (up, down):  1.122E-07 0.000E+00
     extrapolated charge    8.01856, renormalised to    8.00000

[...]

     Writing output data file ./work/LiC421.save/
     NEW-OLD atomic charge density approx. for the potential
     extrapolated charge    8.00062, renormalised to    8.00000

[...]

     Threshold (ethr) on eigenvalues was too large:
     Diagonalizing with lowered threshold

     Davidson diagonalization with overlap
     ethr =  1.37E-09,  avg # of iterations =  1.4

[...]

     number of scf cycles    =   6
     number of bfgs steps    =   5

     enthalpy old            =     -22.7635985864 Ry
     enthalpy new            =     -22.7635986038 Ry

     CASE: enthalpy_new < enthalpy_old

     small trust_radius: resetting bfgs history

     new trust radius        =       0.0000009537 bohr
     new conv_thr            =            1.0E-10 Ry

     new unit-cell volume =    737.37896 a.u.^3 (   109.26829 Ang^3 )
     density =      0.36505 g/cm^3

[...]

ATOMIC_POSITIONS (crystal)
C             0.3333333333        0.6666666667        0.5000000000
C             0.6666666667        0.3333333333        0.5000000000

     Writing output data file ./work/LiC421.save/
     NEW-OLD atomic charge density approx. for the potential
     extrapolated charge    8.00000, renormalised to    8.00000

[...]

     Threshold (ethr) on eigenvalues was too large:
     Diagonalizing with lowered threshold

     Davidson diagonalization with overlap
     ethr =  1.68E-13,  avg # of iterations =  2.1

[...]

     Energy error            =      1.0E-11
     Gradient error          =      1.6E-26
     Cell gradient error     =      4.0E-09

     bfgs converged in   7 scf cycles and   6 bfgs steps
     (criteria: energy <  1.0E-04 Ry, force <  1.0E-08Ry/Bohr, cell <  1.0E-03kbar)

     End of BFGS Geometry Optimization

     Final enthalpy =     -22.7635986038 Ry

     File ./work/LiC421.bfgs deleted, as requested
Begin final coordinates
     new unit-cell volume =    737.37896 a.u.^3 (   109.26829 Ang^3 )
     density =      0.36505 g/cm^3

CELL_PARAMETERS (alat=  4.21000000)
   1.089106747   0.000000000   0.000000000
  -0.544553373   0.943194110   0.000000000
   0.000000000   0.000000000   9.619952494

ATOMIC_POSITIONS (crystal)
C             0.3333333333        0.6666666667        0.5000000000
C             0.6666666667        0.3333333333        0.5000000000
End final coordinates

     Writing output data file ./work/LiC421.save/

     Final scf calculation at the relaxed structure.
     The G-vectors are recalculated for the final unit cell
     Results may differ from those at the preceding step.

     bravais-lattice index     =            4
     lattice parameter (alat)  =       4.2100  a.u.
     unit-cell volume          =     737.3790 (a.u.)^3
     number of atoms/cell      =            2
     number of atomic types    =            1
     number of electrons       =         8.00
     number of Kohn-Sham states=            8
     kinetic-energy cutoff     =      50.0000  Ry
     charge density cutoff     =     200.0000  Ry
     scf convergence threshold =      1.0E-10
     mixing beta               =       0.7000
     number of iterations used =            8  plain     mixing
     press convergence thresh. =      1.0E-03
     Exchange-correlation= PBE
                           (   1   4   3   4   0   0   0)

     celldm(1)=   4.210000  celldm(2)=   0.000000  celldm(3)=   9.619952
     celldm(4)=   0.000000  celldm(5)=   0.000000  celldm(6)=   0.000000

     crystal axes: (cart. coord. in units of alat)
               a(1) = (   1.089107   0.000000   0.000000 )
               a(2) = (  -0.544553   0.943194   0.000000 )
               a(3) = (   0.000000   0.000000   9.619952 )

     reciprocal axes: (cart. coord. in units 2 pi/alat)
               b(1) = (  0.918184  0.530114  0.000000 )
               b(2) = ( -0.000000  1.060227  0.000000 )
               b(3) = (  0.000000  0.000000  0.103951 )

     PseudoPot. # 1 for C  read from file:
     /home/yhkim/qe-6.7/pseudo/ONCV1/1.2/C_ONCV_PBE-1.2.upf
     MD5 check sum: 1a5f83a7b1f58d24996abe00ed223ac6
     Pseudo is Norm-conserving, Zval =  4.0
     Generated using ONCVPSP code by D. R. Hamann
     Using radial grid of  602 points,  4 beta functions with:
                l(1) =   0
                l(2) =   0
                l(3) =   1
                l(4) =   1

     atomic species   valence    mass     pseudopotential
        C              4.00    12.01070     C ( 1.00)

     24 Sym. Ops., with inversion, found

   Cartesian axes

     site n.     atom                  positions (alat units)
         1           C   tau(   1) = (  -0.0000000   0.6287961   4.8099762  )
         2           C   tau(   2) = (   0.5445534   0.3143980   4.8099762  )

     number of k points=    27  Methfessel-Paxton smearing, width (Ry)=  0.0100
                       cart. coord. in units 2pi/alat
        k(    1) = (   0.0000000   0.0000000   0.0000000), wk =   0.0088889
        k(    2) = (  -0.0000000   0.0706818   0.0000000), wk =   0.0533333
        k(    3) = (  -0.0000000   0.1413636   0.0000000), wk =   0.0533333
        k(    4) = (  -0.0000000   0.2120454   0.0000000), wk =   0.0533333
        k(    5) = (  -0.0000000   0.2827272   0.0000000), wk =   0.0533333
        k(    6) = (  -0.0000000   0.3534090   0.0000000), wk =   0.0533333
        k(    7) = (  -0.0000000   0.4240909   0.0000000), wk =   0.0533333
        k(    8) = (  -0.0000000   0.4947727   0.0000000), wk =   0.0533333
        k(    9) = (   0.0612122   0.1060227   0.0000000), wk =   0.0533333
        k(   10) = (   0.0612122   0.1767045   0.0000000), wk =   0.1066667
        k(   11) = (   0.0612122   0.2473863   0.0000000), wk =   0.1066667
        k(   12) = (   0.0612122   0.3180681   0.0000000), wk =   0.1066667
        k(   13) = (   0.0612122   0.3887500   0.0000000), wk =   0.1066667
        k(   14) = (   0.0612122   0.4594318   0.0000000), wk =   0.1066667
        k(   15) = (   0.0612122   0.5301136   0.0000000), wk =   0.0533333
        k(   16) = (   0.1224245   0.2120454   0.0000000), wk =   0.0533333
        k(   17) = (   0.1224245   0.2827272   0.0000000), wk =   0.1066667
        k(   18) = (   0.1224245   0.3534090   0.0000000), wk =   0.1066667
        k(   19) = (   0.1224245   0.4240909   0.0000000), wk =   0.1066667
        k(   20) = (   0.1224245   0.4947727   0.0000000), wk =   0.1066667
        k(   21) = (   0.1836367   0.3180681   0.0000000), wk =   0.0533333
        k(   22) = (   0.1836367   0.3887500   0.0000000), wk =   0.1066667
        k(   23) = (   0.1836367   0.4594318   0.0000000), wk =   0.1066667
        k(   24) = (   0.1836367   0.5301136   0.0000000), wk =   0.0533333
        k(   25) = (   0.2448490   0.4240909   0.0000000), wk =   0.0533333
        k(   26) = (   0.2448490   0.4947727   0.0000000), wk =   0.1066667
        k(   27) = (   0.3060612   0.5301136   0.0000000), wk =   0.0177778

     Initial potential from superposition of free atoms

     starting charge    7.98607, renormalised to    8.00000

     negative rho (up, down):  1.113E-04 0.000E+00
     Starting wfcs are random

     Self-consistent Calculation

[...]

     negative rho (up, down):  2.719E-06 0.000E+00

[...]

     iteration #  5     ecut=    50.00 Ry     beta= 0.70
     Davidson diagonalization with overlap
     c_bands:  1 eigenvalues not converged
     ethr =  1.68E-08,  avg # of iterations =  4.4

[...]

     total energy              =     -22.78810580 Ry
     estimated scf accuracy    <          7.4E-10 Ry

     iteration #  7     ecut=    50.00 Ry     beta= 0.70
     Davidson diagonalization with overlap
     ethr =  9.24E-12,  avg # of iterations =  3.0

     End of self-consistent calculation

[...]

          k =-0.0000 0.4948 0.0000 (  4423 PWs)   bands (ev):

[...]

          k = 0.3061 0.5301 0.0000 (  4395 PWs)   bands (ev):

   -16.8770 -16.8770 -15.0610  -4.1015  -4.1015   6.5966   9.1015   9.1015

     the Fermi energy is    -4.1015 ev

!    total energy              =     -22.78810580 Ry
     estimated scf accuracy    <          1.1E-11 Ry
     smearing contrib. (-TS)   =      -0.00005015 Ry
     internal energy E=F+TS    =     -22.78805565 Ry

     The total energy is F=E-TS. E is the sum of the following terms:
     one-electron contribution =    -399.63060624 Ry
     hartree contribution      =     200.46718379 Ry
     xc contribution           =      -7.07999565 Ry
     ewald contribution        =     183.45536246 Ry

     convergence has been achieved in   7 iterations

     Forces acting on atoms (cartesian axes, Ry/au):

     atom    1 type  1   force =    -0.00000000   -0.00000000    0.00000000
     atom    2 type  1   force =     0.00000000    0.00000000    0.00000000

     Total force =     0.000000     Total SCF correction =     0.000000

     Computing stress (Cartesian axis) and pressure

          total   stress  (Ry/bohr**3)                   (kbar)     P=        5.56
   0.00011283   0.00000000  -0.00000000           16.60        0.00       -0.00
   0.00000000   0.00011283  -0.00000000            0.00       16.60       -0.00
   0.00000000   0.00000000  -0.00011228            0.00        0.00      -16.52

     Writing output data file ./work/LiC421.save/

     General routines

     Parallel routines

   This run was terminated on:  14: 5:36  19Jan2024

   JOB DONE.