     Program PWSCF v.6.7MaX starts on 19Jan2024 at 14: 6:49

     R & G space division:  proc/nbgrp/npool/nimage =      32
     Waiting for input...
     Reading input from standard input

     Current dimensions of program PWSCF are:
     Max number of different atomic species (ntypx) = 10
     Max number of k-points (npk) =  40000
     Max angular momentum in pseudopotentials (lmaxx) =  3
     Message from routine read_pp_mesh:
     mesh size missing, using the one in header

     Subspace diagonalization in iterative solution of the eigenvalue problem:
     a serial algorithm will be used

     bravais-lattice index     =            4
     lattice parameter (alat)  =       4.2500  a.u.
     unit-cell volume          =     633.5246 (a.u.)^3
     number of atoms/cell      =            2
     number of atomic types    =            1
     number of electrons       =         8.00
     number of Kohn-Sham states=            8
     kinetic-energy cutoff     =      50.0000  Ry
     charge density cutoff     =     200.0000  Ry
     scf convergence threshold =      1.0E-08
     mixing beta               =       0.7000
     number of iterations used =            8  plain     mixing
     energy convergence thresh.=      1.0E-04
     force convergence thresh. =      1.0E-08
     press convergence thresh. =      1.0E-03
     Exchange-correlation= PBE
                           (   1   4   3   4   0   0   0)
     nstep                     =           50

     celldm(1)=   4.250000  celldm(2)=   0.000000  celldm(3)=   9.529412
     celldm(4)=   0.000000  celldm(5)=   0.000000  celldm(6)=   0.000000

     crystal axes: (cart. coord. in units of alat)
               a(1) = (   1.000000   0.000000   0.000000 )
               a(2) = (  -0.500000   0.866025   0.000000 )
               a(3) = (   0.000000   0.000000   9.529412 )

     reciprocal axes: (cart. coord. in units 2 pi/alat)
               b(1) = (  1.000000  0.577350  0.000000 )
               b(2) = (  0.000000  1.154701  0.000000 )
               b(3) = (  0.000000  0.000000  0.104938 )

     PseudoPot. # 1 for C  read from file:
     /home/yhkim/qe-6.7/pseudo/ONCV1/1.2/C_ONCV_PBE-1.2.upf
     MD5 check sum: 1a5f83a7b1f58d24996abe00ed223ac6
     Pseudo is Norm-conserving, Zval =  4.0
     Generated using ONCVPSP code by D. R. Hamann
     Using radial grid of  602 points,  4 beta functions with:
                l(1) =   0
                l(2) =   0
                l(3) =   1
                l(4) =   1

     atomic species   valence    mass     pseudopotential
        C              4.00    12.01070     C ( 1.00)

     24 Sym. Ops., with inversion, found

   Cartesian axes

     site n.     atom                  positions (alat units)
         1           C   tau(   1) = (  -0.0000000   0.5773503   4.7647059  )
         2           C   tau(   2) = (   0.5000000   0.2886751   4.7647059  )

     number of k points=    27  Methfessel-Paxton smearing, width (Ry)=  0.0100
                       cart. coord. in units 2pi/alat
        k(    1) = (   0.0000000   0.0000000   0.0000000), wk =   0.0088889
        k(    2) = (   0.0000000   0.0769800   0.0000000), wk =   0.0533333
        k(    3) = (   0.0000000   0.1539601   0.0000000), wk =   0.0533333
        k(    4) = (   0.0000000   0.2309401   0.0000000), wk =   0.0533333
        k(    5) = (   0.0000000   0.3079201   0.0000000), wk =   0.0533333
        k(    6) = (   0.0000000   0.3849002   0.0000000), wk =   0.0533333
        k(    7) = (   0.0000000   0.4618802   0.0000000), wk =   0.0533333
        k(    8) = (   0.0000000   0.5388603   0.0000000), wk =   0.0533333
        k(    9) = (   0.0666667   0.1154701   0.0000000), wk =   0.0533333
        k(   10) = (   0.0666667   0.1924501   0.0000000), wk =   0.1066667
        k(   11) = (   0.0666667   0.2694301   0.0000000), wk =   0.1066667
        k(   12) = (   0.0666667   0.3464102   0.0000000), wk =   0.1066667
        k(   13) = (   0.0666667   0.4233902   0.0000000), wk =   0.1066667
        k(   14) = (   0.0666667   0.5003702   0.0000000), wk =   0.1066667
        k(   15) = (   0.0666667   0.5773503   0.0000000), wk =   0.0533333
        k(   16) = (   0.1333333   0.2309401   0.0000000), wk =   0.0533333
        k(   17) = (   0.1333333   0.3079201   0.0000000), wk =   0.1066667
        k(   18) = (   0.1333333   0.3849002   0.0000000), wk =   0.1066667
        k(   19) = (   0.1333333   0.4618802   0.0000000), wk =   0.1066667
        k(   20) = (   0.1333333   0.5388603   0.0000000), wk =   0.1066667
        k(   21) = (   0.2000000   0.3464102   0.0000000), wk =   0.0533333
        k(   22) = (   0.2000000   0.4233902   0.0000000), wk =   0.1066667
        k(   23) = (   0.2000000   0.5003702   0.0000000), wk =   0.1066667
        k(   24) = (   0.2000000   0.5773503   0.0000000), wk =   0.0533333
        k(   25) = (   0.2666667   0.4618802   0.0000000), wk =   0.0533333
        k(   26) = (   0.2666667   0.5388603   0.0000000), wk =   0.1066667
        k(   27) = (   0.3333333   0.5773503   0.0000000), wk =   0.0177778

     Initial potential from superposition of free atoms

     starting charge    7.98607, renormalised to    8.00000

     negative rho (up, down):  1.110E-04 0.000E+00
     Starting wfcs are random

     Self-consistent Calculation

     iteration #  1     ecut=    50.00 Ry     beta= 0.70
     Davidson diagonalization with overlap
     ethr =  1.00E-02,  avg # of iterations = 11.3

     negative rho (up, down):  1.645E-07 0.000E+00

     total energy              =     -22.63711059 Ry
     estimated scf accuracy    <       0.35027610 Ry

[...]

     iteration #  4     ecut=    50.00 Ry     beta= 0.70
     Davidson diagonalization with overlap
     c_bands:  1 eigenvalues not converged
     ethr =  2.17E-06,  avg # of iterations =  5.6

[...]

     End of self-consistent calculation

          k = 0.0000 0.0000 0.0000 (  3799 PWs)   bands (ev):

   -25.2285 -13.0372  -6.2465  -1.0288  -0.2101   0.5621   0.9175   2.2415

[...]

     the Fermi energy is    -3.3191 ev

!    total energy              =     -22.69083882 Ry
     estimated scf accuracy    <          7.0E-09 Ry
     smearing contrib. (-TS)   =      -0.00003668 Ry
     internal energy E=F+TS    =     -22.69080214 Ry

     The total energy is F=E-TS. E is the sum of the following terms:
     one-electron contribution =    -466.08220459 Ry
     hartree contribution      =     233.87375278 Ry
     xc contribution           =      -7.42909585 Ry
     ewald contribution        =     216.94674552 Ry

     convergence has been achieved in   6 iterations

     Forces acting on atoms (cartesian axes, Ry/au):

     atom    1 type  1   force =     0.00000000    0.00000000    0.00000000
     atom    2 type  1   force =     0.00000000    0.00000000    0.00000000

     Total force =     0.000000     Total SCF correction =     0.000000

     Computing stress (Cartesian axis) and pressure

          total   stress  (Ry/bohr**3)                   (kbar)     P=      150.62
   0.00160412   0.00000000   0.00000000          235.97        0.00        0.00
   0.00000000   0.00160412   0.00000000            0.00      235.97        0.00
  -0.00000000   0.00000000  -0.00013647           -0.00        0.00      -20.07

     BFGS Geometry Optimization
     Energy error            =      0.0E+00
     Gradient error          =      0.0E+00
     Cell gradient error     =      1.6E-03

     number of scf cycles    =   1
     number of bfgs steps    =   0

     enthalpy new            =     -22.6908388164 Ry

     new trust radius        =       0.2018776840 bohr
     new conv_thr            =       0.0000000100 Ry

     new unit-cell volume =    685.35595 a.u.^3 (   101.55927 Ang^3 )
     density =      0.39276 g/cm^3

CELL_PARAMETERS (alat=  4.25000000)
   1.040102973  -0.000000000   0.000000000
  -0.520051486   0.900755597   0.000000000
   0.000000000   0.000000000   9.529411765

ATOMIC_POSITIONS (crystal)
C             0.3333333333        0.6666666667        0.5000000000
C             0.6666666667        0.3333333333        0.5000000000

     Writing output data file ./work/LiC425.save/
     NEW-OLD atomic charge density approx. for the potential

     negative rho (up, down):  1.146E-04 0.000E+00
     extrapolated charge    8.60396, renormalised to    8.00000

[...]

     Energy error            =      6.0E-02
     Gradient error          =      1.7E-26
     Cell gradient error     =      6.7E-04

[...]

     enthalpy old            =     -22.6908388164 Ry
     enthalpy new            =     -22.7503592914 Ry

     CASE: enthalpy_new < enthalpy_old

[...]

     Writing output data file ./work/LiC425.save/
     NEW-OLD atomic charge density approx. for the potential

     negative rho (up, down):  6.398E-06 0.000E+00
     extrapolated charge    8.11351, renormalised to    8.00000

[...]

     Writing output data file ./work/LiC425.save/
     NEW-OLD atomic charge density approx. for the potential
     extrapolated charge    8.01513, renormalised to    8.00000

[...]

     number of scf cycles    =   5
     number of bfgs steps    =   4

     enthalpy old            =     -22.7672431646 Ry
     enthalpy new            =     -22.7672540391 Ry

     CASE: enthalpy_new < enthalpy_old

     new trust radius        =       0.0001533079 bohr
     new conv_thr            =            1.0E-10 Ry

     new unit-cell volume =    738.78513 a.u.^3 (   109.47666 Ang^3 )
     density =      0.36436 g/cm^3

[...]

ATOMIC_POSITIONS (crystal)
C             0.3333333333        0.6666666667        0.5000000000
C             0.6666666667        0.3333333333        0.5000000000

     Writing output data file ./work/LiC425.save/
     NEW-OLD atomic charge density approx. for the potential
     extrapolated charge    8.00045, renormalised to    8.00000

[...]

     Threshold (ethr) on eigenvalues was too large:
     Diagonalizing with lowered threshold

     Davidson diagonalization with overlap
     ethr =  7.10E-10,  avg # of iterations =  1.4

[...]

     Energy error            =      8.9E-09
     Gradient error          =      1.6E-26
     Cell gradient error     =      6.0E-09

     bfgs converged in   6 scf cycles and   5 bfgs steps
     (criteria: energy <  1.0E-04 Ry, force <  1.0E-08Ry/Bohr, cell <  1.0E-03kbar)

     End of BFGS Geometry Optimization

     Final enthalpy =     -22.7672540481 Ry

     File ./work/LiC425.bfgs deleted, as requested
Begin final coordinates
     new unit-cell volume =    738.78513 a.u.^3 (   109.47666 Ang^3 )
     density =      0.36436 g/cm^3

CELL_PARAMETERS (alat=  4.25000000)
   1.079884521  -0.000000000   0.000000000
  -0.539942261   0.935207429   0.000000000
   0.000000000   0.000000000   9.529411765

ATOMIC_POSITIONS (crystal)
C             0.3333333333        0.6666666667        0.5000000000
C             0.6666666667        0.3333333333        0.5000000000
End final coordinates

     Writing output data file ./work/LiC425.save/

     Final scf calculation at the relaxed structure.
     The G-vectors are recalculated for the final unit cell
     Results may differ from those at the preceding step.

     bravais-lattice index     =            4
     lattice parameter (alat)  =       4.2500  a.u.
     unit-cell volume          =     738.7851 (a.u.)^3
     number of atoms/cell      =            2
     number of atomic types    =            1
     number of electrons       =         8.00
     number of Kohn-Sham states=            8
     kinetic-energy cutoff     =      50.0000  Ry
     charge density cutoff     =     200.0000  Ry
     scf convergence threshold =      1.0E-10
     mixing beta               =       0.7000
     number of iterations used =            8  plain     mixing
     press convergence thresh. =      1.0E-03
     Exchange-correlation= PBE
                           (   1   4   3   4   0   0   0)

     celldm(1)=   4.250000  celldm(2)=   0.000000  celldm(3)=   9.529412
     celldm(4)=   0.000000  celldm(5)=   0.000000  celldm(6)=   0.000000

     crystal axes: (cart. coord. in units of alat)
               a(1) = (   1.079885  -0.000000   0.000000 )
               a(2) = (  -0.539942   0.935207   0.000000 )
               a(3) = (   0.000000   0.000000   9.529412 )

     reciprocal axes: (cart. coord. in units 2 pi/alat)
               b(1) = (  0.926025  0.534641  0.000000 )
               b(2) = (  0.000000  1.069281  0.000000 )
               b(3) = (  0.000000  0.000000  0.104938 )

     PseudoPot. # 1 for C  read from file:
     /home/yhkim/qe-6.7/pseudo/ONCV1/1.2/C_ONCV_PBE-1.2.upf
     MD5 check sum: 1a5f83a7b1f58d24996abe00ed223ac6
     Pseudo is Norm-conserving, Zval =  4.0
     Generated using ONCVPSP code by D. R. Hamann
     Using radial grid of  602 points,  4 beta functions with:
                l(1) =   0
                l(2) =   0
                l(3) =   1
                l(4) =   1

     atomic species   valence    mass     pseudopotential
        C              4.00    12.01070     C ( 1.00)

     24 Sym. Ops., with inversion, found

   Cartesian axes

     site n.     atom                  positions (alat units)
         1           C   tau(   1) = (  -0.0000000   0.6234716   4.7647059  )
         2           C   tau(   2) = (   0.5399423   0.3117358   4.7647059  )

     number of k points=    27  Methfessel-Paxton smearing, width (Ry)=  0.0100
                       cart. coord. in units 2pi/alat
        k(    1) = (   0.0000000   0.0000000   0.0000000), wk =   0.0088889
        k(    2) = (   0.0000000   0.0712854   0.0000000), wk =   0.0533333
        k(    3) = (   0.0000000   0.1425709   0.0000000), wk =   0.0533333
        k(    4) = (   0.0000000   0.2138563   0.0000000), wk =   0.0533333
        k(    5) = (   0.0000000   0.2851417   0.0000000), wk =   0.0533333
        k(    6) = (   0.0000000   0.3564272   0.0000000), wk =   0.0533333
        k(    7) = (   0.0000000   0.4277126   0.0000000), wk =   0.0533333
        k(    8) = (   0.0000000   0.4989980   0.0000000), wk =   0.0533333
        k(    9) = (   0.0617350   0.1069281   0.0000000), wk =   0.0533333
        k(   10) = (   0.0617350   0.1782136   0.0000000), wk =   0.1066667
        k(   11) = (   0.0617350   0.2494990   0.0000000), wk =   0.1066667
        k(   12) = (   0.0617350   0.3207844   0.0000000), wk =   0.1066667
        k(   13) = (   0.0617350   0.3920699   0.0000000), wk =   0.1066667
        k(   14) = (   0.0617350   0.4633553   0.0000000), wk =   0.1066667
        k(   15) = (   0.0617350   0.5346407   0.0000000), wk =   0.0533333
        k(   16) = (   0.1234700   0.2138563   0.0000000), wk =   0.0533333
        k(   17) = (   0.1234700   0.2851417   0.0000000), wk =   0.1066667
        k(   18) = (   0.1234700   0.3564272   0.0000000), wk =   0.1066667
        k(   19) = (   0.1234700   0.4277126   0.0000000), wk =   0.1066667
        k(   20) = (   0.1234700   0.4989980   0.0000000), wk =   0.1066667
        k(   21) = (   0.1852050   0.3207844   0.0000000), wk =   0.0533333
        k(   22) = (   0.1852050   0.3920699   0.0000000), wk =   0.1066667
        k(   23) = (   0.1852050   0.4633553   0.0000000), wk =   0.1066667
        k(   24) = (   0.1852050   0.5346407   0.0000000), wk =   0.0533333
        k(   25) = (   0.2469400   0.4277126   0.0000000), wk =   0.0533333
        k(   26) = (   0.2469400   0.4989980   0.0000000), wk =   0.1066667
        k(   27) = (   0.3086750   0.5346407   0.0000000), wk =   0.0177778

     Initial potential from superposition of free atoms

     starting charge    7.98607, renormalised to    8.00000

     negative rho (up, down):  1.110E-04 0.000E+00
     Starting wfcs are random

     Self-consistent Calculation

     iteration #  1     ecut=    50.00 Ry     beta= 0.70
     Davidson diagonalization with overlap
     c_bands:  2 eigenvalues not converged
     c_bands:  5 eigenvalues not converged
     c_bands:  4 eigenvalues not converged
     c_bands:  4 eigenvalues not converged
     c_bands:  3 eigenvalues not converged
     c_bands:  2 eigenvalues not converged
     c_bands:  3 eigenvalues not converged
     c_bands:  2 eigenvalues not converged
     c_bands:  4 eigenvalues not converged
     c_bands:  4 eigenvalues not converged
     c_bands:  4 eigenvalues not converged
     c_bands:  3 eigenvalues not converged
     c_bands:  3 eigenvalues not converged
     c_bands:  2 eigenvalues not converged
     c_bands:  4 eigenvalues not converged
     c_bands:  4 eigenvalues not converged
     c_bands:  4 eigenvalues not converged
     c_bands:  3 eigenvalues not converged
     c_bands:  2 eigenvalues not converged
     c_bands:  4 eigenvalues not converged
     c_bands:  3 eigenvalues not converged
     c_bands:  3 eigenvalues not converged
     c_bands:  3 eigenvalues not converged
     c_bands:  3 eigenvalues not converged
     c_bands:  3 eigenvalues not converged
     c_bands:  2 eigenvalues not converged
     ethr =  1.00E-06,  avg # of iterations = 22.2

[...]

     negative rho (up, down):  2.641E-06 0.000E+00

[...]

     total energy              =     -22.78842552 Ry
     estimated scf accuracy    <          1.1E-09 Ry

     iteration #  7     ecut=    50.00 Ry     beta= 0.70
     Davidson diagonalization with overlap
     ethr =  1.40E-11,  avg # of iterations =  2.9

     End of self-consistent calculation

[...]

          k = 0.3087 0.5346 0.0000 (  4395 PWs)   bands (ev):

   -16.8770 -16.8770 -15.0476  -4.1098  -4.1098   6.5836   9.0752   9.0752

     the Fermi energy is    -4.1098 ev

!    total energy              =     -22.78842552 Ry
     estimated scf accuracy    <          1.2E-11 Ry
     smearing contrib. (-TS)   =      -0.00005015 Ry
     internal energy E=F+TS    =     -22.78837537 Ry

     The total energy is F=E-TS. E is the sum of the following terms:
     one-electron contribution =    -398.86078911 Ry
     hartree contribution      =     200.08025982 Ry
     xc contribution           =      -7.07581817 Ry
     ewald contribution        =     183.06797209 Ry

     convergence has been achieved in   7 iterations

     Forces acting on atoms (cartesian axes, Ry/au):

     atom    1 type  1   force =    -0.00000000   -0.00000000    0.00000000
     atom    2 type  1   force =     0.00000000    0.00000000    0.00000000

     Total force =     0.000000     Total SCF correction =     0.000000

     Computing stress (Cartesian axis) and pressure

          total   stress  (Ry/bohr**3)                   (kbar)     P=        4.23
   0.00009902   0.00000000   0.00000000           14.57        0.00        0.00
   0.00000000   0.00009902   0.00000000            0.00       14.57        0.00
   0.00000000   0.00000000  -0.00011183            0.00        0.00      -16.45

     Writing output data file ./work/LiC425.save/

     General routines

     Parallel routines

   This run was terminated on:  14: 7:12  19Jan2024

   JOB DONE.