     Program PWSCF v.6.7MaX starts on 19Jan2024 at 13:57: 7

     R & G space division:  proc/nbgrp/npool/nimage =      32
     Waiting for input...
     Reading input from standard input

     Current dimensions of program PWSCF are:
     Max number of different atomic species (ntypx) = 10
     Max number of k-points (npk) =  40000
     Max angular momentum in pseudopotentials (lmaxx) =  3
     Message from routine read_pp_mesh:
     mesh size missing, using the one in header

     Subspace diagonalization in iterative solution of the eigenvalue problem:
     a serial algorithm will be used

     bravais-lattice index     =            4
     lattice parameter (alat)  =       4.1200  a.u.
     unit-cell volume          =     595.3606 (a.u.)^3
     number of atoms/cell      =            2
     number of atomic types    =            1
     number of electrons       =         8.00
     number of Kohn-Sham states=            8
     kinetic-energy cutoff     =      50.0000  Ry
     charge density cutoff     =     200.0000  Ry
     scf convergence threshold =      1.0E-08
     mixing beta               =       0.7000
     number of iterations used =            8  plain     mixing
     energy convergence thresh.=      1.0E-04
     force convergence thresh. =      1.0E-08
     press convergence thresh. =      1.0E-03
     Exchange-correlation= PBE
                           (   1   4   3   4   0   0   0)
     nstep                     =           50

     celldm(1)=   4.120000  celldm(2)=   0.000000  celldm(3)=   9.830097
     celldm(4)=   0.000000  celldm(5)=   0.000000  celldm(6)=   0.000000

     crystal axes: (cart. coord. in units of alat)
               a(1) = (   1.000000   0.000000   0.000000 )
               a(2) = (  -0.500000   0.866025   0.000000 )
               a(3) = (   0.000000   0.000000   9.830097 )

     reciprocal axes: (cart. coord. in units 2 pi/alat)
               b(1) = (  1.000000  0.577350  0.000000 )
               b(2) = (  0.000000  1.154701  0.000000 )
               b(3) = (  0.000000  0.000000  0.101728 )

     PseudoPot. # 1 for C  read from file:
     /home/yhkim/qe-6.7/pseudo/ONCV1/1.2/C_ONCV_PBE-1.2.upf
     MD5 check sum: 1a5f83a7b1f58d24996abe00ed223ac6
     Pseudo is Norm-conserving, Zval =  4.0
     Generated using ONCVPSP code by D. R. Hamann
     Using radial grid of  602 points,  4 beta functions with:
                l(1) =   0
                l(2) =   0
                l(3) =   1
                l(4) =   1

     atomic species   valence    mass     pseudopotential
        C              4.00    12.01070     C ( 1.00)

     24 Sym. Ops., with inversion, found

   Cartesian axes

     site n.     atom                  positions (alat units)
         1           C   tau(   1) = (  -0.0000000   0.5773503   4.9150485  )
         2           C   tau(   2) = (   0.5000000   0.2886751   4.9150485  )

     number of k points=    27  Methfessel-Paxton smearing, width (Ry)=  0.0100
                       cart. coord. in units 2pi/alat
        k(    1) = (   0.0000000   0.0000000   0.0000000), wk =   0.0088889
        k(    2) = (   0.0000000   0.0769800   0.0000000), wk =   0.0533333
        k(    3) = (   0.0000000   0.1539601   0.0000000), wk =   0.0533333
        k(    4) = (   0.0000000   0.2309401   0.0000000), wk =   0.0533333
        k(    5) = (   0.0000000   0.3079201   0.0000000), wk =   0.0533333
        k(    6) = (   0.0000000   0.3849002   0.0000000), wk =   0.0533333
        k(    7) = (   0.0000000   0.4618802   0.0000000), wk =   0.0533333
        k(    8) = (   0.0000000   0.5388603   0.0000000), wk =   0.0533333
        k(    9) = (   0.0666667   0.1154701   0.0000000), wk =   0.0533333
        k(   10) = (   0.0666667   0.1924501   0.0000000), wk =   0.1066667
        k(   11) = (   0.0666667   0.2694301   0.0000000), wk =   0.1066667
        k(   12) = (   0.0666667   0.3464102   0.0000000), wk =   0.1066667
        k(   13) = (   0.0666667   0.4233902   0.0000000), wk =   0.1066667
        k(   14) = (   0.0666667   0.5003702   0.0000000), wk =   0.1066667
        k(   15) = (   0.0666667   0.5773503   0.0000000), wk =   0.0533333
        k(   16) = (   0.1333333   0.2309401   0.0000000), wk =   0.0533333
        k(   17) = (   0.1333333   0.3079201   0.0000000), wk =   0.1066667
        k(   18) = (   0.1333333   0.3849002   0.0000000), wk =   0.1066667
        k(   19) = (   0.1333333   0.4618802   0.0000000), wk =   0.1066667
        k(   20) = (   0.1333333   0.5388603   0.0000000), wk =   0.1066667
        k(   21) = (   0.2000000   0.3464102   0.0000000), wk =   0.0533333
        k(   22) = (   0.2000000   0.4233902   0.0000000), wk =   0.1066667
        k(   23) = (   0.2000000   0.5003702   0.0000000), wk =   0.1066667
        k(   24) = (   0.2000000   0.5773503   0.0000000), wk =   0.0533333
        k(   25) = (   0.2666667   0.4618802   0.0000000), wk =   0.0533333
        k(   26) = (   0.2666667   0.5388603   0.0000000), wk =   0.1066667
        k(   27) = (   0.3333333   0.5773503   0.0000000), wk =   0.0177778

     Initial potential from superposition of free atoms

     starting charge    7.98607, renormalised to    8.00000

     negative rho (up, down):  1.053E-04 0.000E+00
     Starting wfcs are random

     Self-consistent Calculation

     iteration #  1     ecut=    50.00 Ry     beta= 0.70
     Davidson diagonalization with overlap
     ethr =  1.00E-02,  avg # of iterations = 11.4

     negative rho (up, down):  1.111E-07 0.000E+00

     total energy              =     -22.54058390 Ry
     estimated scf accuracy    <       0.43415898 Ry

[...]

     End of self-consistent calculation

          k = 0.0000 0.0000 0.0000 (  3607 PWs)   bands (ev):

   -25.6958 -13.4661  -5.7619  -1.0414  -0.2128   0.5543   0.9089   2.2316

[...]

     the Fermi energy is    -2.9640 ev

!    total energy              =     -22.60656108 Ry
     estimated scf accuracy    <          3.1E-09 Ry
     smearing contrib. (-TS)   =      -0.00003668 Ry
     internal energy E=F+TS    =     -22.60652440 Ry

     The total energy is F=E-TS. E is the sum of the following terms:
     one-electron contribution =    -496.42639483 Ry
     hartree contribution      =     249.13815375 Ry
     xc contribution           =      -7.58240241 Ry
     ewald contribution        =     232.26411909 Ry

     convergence has been achieved in   6 iterations

     Forces acting on atoms (cartesian axes, Ry/au):

     atom    1 type  1   force =     0.00000000    0.00000000    0.00000000
     atom    2 type  1   force =     0.00000000    0.00000000    0.00000000

     Total force =     0.000000     Total SCF correction =     0.000000

     Computing stress (Cartesian axis) and pressure

          total   stress  (Ry/bohr**3)                   (kbar)     P=      237.46
   0.00249556  -0.00000000   0.00000000          367.11       -0.00        0.00
  -0.00000000   0.00249556  -0.00000000           -0.00      367.11       -0.00
   0.00000000  -0.00000000  -0.00014836            0.00       -0.00      -21.82

     BFGS Geometry Optimization
     Energy error            =      0.0E+00
     Gradient error          =      0.0E+00
     Cell gradient error     =      2.5E-03

     number of scf cycles    =   1
     number of bfgs steps    =   0

     enthalpy new            =     -22.6065610789 Ry

     new trust radius        =       0.3044581772 bohr
     new conv_thr            =       0.0000000100 Ry

     new unit-cell volume =    671.96580 a.u.^3 (    99.57506 Ang^3 )
     density =      0.40059 g/cm^3

CELL_PARAMETERS (alat=  4.12000000)
   1.062388940  -0.000000000   0.000000000
  -0.531194470   0.920055811   0.000000000
   0.000000000   0.000000000   9.830097087

ATOMIC_POSITIONS (crystal)
C             0.3333333333        0.6666666667        0.5000000000
C             0.6666666667        0.3333333333        0.5000000000

     Writing output data file ./work/LiC412.save/
     NEW-OLD atomic charge density approx. for the potential

     negative rho (up, down):  1.669E-04 0.000E+00
     extrapolated charge    8.91042, renormalised to    8.00000

[...]

     iteration #  1     ecut=    50.00 Ry     beta= 0.70
     Davidson diagonalization with overlap
     c_bands:  1 eigenvalues not converged
     c_bands:  3 eigenvalues not converged
     c_bands:  4 eigenvalues not converged
     c_bands:  3 eigenvalues not converged
     c_bands:  5 eigenvalues not converged
     c_bands:  5 eigenvalues not converged
     c_bands:  1 eigenvalues not converged
     c_bands:  5 eigenvalues not converged
     c_bands:  4 eigenvalues not converged
     c_bands:  4 eigenvalues not converged
     c_bands:  4 eigenvalues not converged
     c_bands:  5 eigenvalues not converged
     c_bands:  5 eigenvalues not converged
     c_bands:  5 eigenvalues not converged
     c_bands:  1 eigenvalues not converged
     c_bands:  4 eigenvalues not converged
     c_bands:  5 eigenvalues not converged
     c_bands:  5 eigenvalues not converged
     c_bands:  5 eigenvalues not converged
     c_bands:  5 eigenvalues not converged
     c_bands:  5 eigenvalues not converged
     c_bands:  5 eigenvalues not converged
     c_bands:  1 eigenvalues not converged
     c_bands:  5 eigenvalues not converged
     c_bands:  1 eigenvalues not converged
     ethr =  1.00E-06,  avg # of iterations = 24.3

[...]

     Energy error            =      1.2E-01
     Gradient error          =      0.0E+00
     Cell gradient error     =      8.4E-04

[...]

     enthalpy old            =     -22.6065610789 Ry
     enthalpy new            =     -22.7304109496 Ry

     CASE: enthalpy_new < enthalpy_old

[...]

          k =-0.0000 0.0694 0.0000 (  3580 PWs)   bands (ev):

[...]

     Writing output data file ./work/LiC412.save/
     NEW-OLD atomic charge density approx. for the potential

     negative rho (up, down):  1.656E-06 0.000E+00
     extrapolated charge    8.02615, renormalised to    8.00000

[...]

     number of scf cycles    =   5
     number of bfgs steps    =   4

     enthalpy old            =     -22.7545137222 Ry
     enthalpy new            =     -22.7545478274 Ry

     CASE: enthalpy_new < enthalpy_old

     new trust radius        =       0.0003869651 bohr
     new conv_thr            =            1.0E-10 Ry

     new unit-cell volume =    734.14011 a.u.^3 (   108.78834 Ang^3 )
     density =      0.36666 g/cm^3

[...]

ATOMIC_POSITIONS (crystal)
C             0.3333333333        0.6666666667        0.5000000000
C             0.6666666667        0.3333333333        0.5000000000

     Writing output data file ./work/LiC412.save/
     NEW-OLD atomic charge density approx. for the potential
     extrapolated charge    8.00114, renormalised to    8.00000

[...]

     Threshold (ethr) on eigenvalues was too large:
     Diagonalizing with lowered threshold

     Davidson diagonalization with overlap
     ethr =  4.69E-09,  avg # of iterations =  1.0

[...]

     Energy error            =      6.0E-08
     Gradient error          =      1.6E-26
     Cell gradient error     =      4.5E-10

     bfgs converged in   6 scf cycles and   5 bfgs steps
     (criteria: energy <  1.0E-04 Ry, force <  1.0E-08Ry/Bohr, cell <  1.0E-03kbar)

     End of BFGS Geometry Optimization

     Final enthalpy =     -22.7545478874 Ry

     File ./work/LiC412.bfgs deleted, as requested
Begin final coordinates
     new unit-cell volume =    734.14011 a.u.^3 (   108.78834 Ang^3 )
     density =      0.36666 g/cm^3

CELL_PARAMETERS (alat=  4.12000000)
   1.110451082   0.000000000   0.000000000
  -0.555225541   0.961678846   0.000000000
   0.000000000   0.000000000   9.830097087

ATOMIC_POSITIONS (crystal)
C             0.3333333333        0.6666666667        0.5000000000
C             0.6666666667        0.3333333333        0.5000000000
End final coordinates

     Writing output data file ./work/LiC412.save/

     Final scf calculation at the relaxed structure.
     The G-vectors are recalculated for the final unit cell
     Results may differ from those at the preceding step.

     bravais-lattice index     =            4
     lattice parameter (alat)  =       4.1200  a.u.
     unit-cell volume          =     734.1401 (a.u.)^3
     number of atoms/cell      =            2
     number of atomic types    =            1
     number of electrons       =         8.00
     number of Kohn-Sham states=            8
     kinetic-energy cutoff     =      50.0000  Ry
     charge density cutoff     =     200.0000  Ry
     scf convergence threshold =      1.0E-10
     mixing beta               =       0.7000
     number of iterations used =            8  plain     mixing
     press convergence thresh. =      1.0E-03
     Exchange-correlation= PBE
                           (   1   4   3   4   0   0   0)

     celldm(1)=   4.120000  celldm(2)=   0.000000  celldm(3)=   9.830097
     celldm(4)=   0.000000  celldm(5)=   0.000000  celldm(6)=   0.000000

     crystal axes: (cart. coord. in units of alat)
               a(1) = (   1.110451   0.000000   0.000000 )
               a(2) = (  -0.555226   0.961679   0.000000 )
               a(3) = (   0.000000   0.000000   9.830097 )

     reciprocal axes: (cart. coord. in units 2 pi/alat)
               b(1) = (  0.900535  0.519924  0.000000 )
               b(2) = ( -0.000000  1.039848  0.000000 )
               b(3) = (  0.000000  0.000000  0.101728 )

     PseudoPot. # 1 for C  read from file:
     /home/yhkim/qe-6.7/pseudo/ONCV1/1.2/C_ONCV_PBE-1.2.upf
     MD5 check sum: 1a5f83a7b1f58d24996abe00ed223ac6
     Pseudo is Norm-conserving, Zval =  4.0
     Generated using ONCVPSP code by D. R. Hamann
     Using radial grid of  602 points,  4 beta functions with:
                l(1) =   0
                l(2) =   0
                l(3) =   1
                l(4) =   1

     atomic species   valence    mass     pseudopotential
        C              4.00    12.01070     C ( 1.00)

     24 Sym. Ops., with inversion, found

   Cartesian axes

     site n.     atom                  positions (alat units)
         1           C   tau(   1) = (  -0.0000000   0.6411192   4.9150485  )
         2           C   tau(   2) = (   0.5552255   0.3205596   4.9150485  )

     number of k points=    27  Methfessel-Paxton smearing, width (Ry)=  0.0100
                       cart. coord. in units 2pi/alat
        k(    1) = (   0.0000000   0.0000000   0.0000000), wk =   0.0088889
        k(    2) = (  -0.0000000   0.0693232   0.0000000), wk =   0.0533333
        k(    3) = (  -0.0000000   0.1386464   0.0000000), wk =   0.0533333
        k(    4) = (  -0.0000000   0.2079696   0.0000000), wk =   0.0533333
        k(    5) = (  -0.0000000   0.2772928   0.0000000), wk =   0.0533333
        k(    6) = (  -0.0000000   0.3466161   0.0000000), wk =   0.0533333
        k(    7) = (  -0.0000000   0.4159393   0.0000000), wk =   0.0533333
        k(    8) = (  -0.0000000   0.4852625   0.0000000), wk =   0.0533333
        k(    9) = (   0.0600357   0.1039848   0.0000000), wk =   0.0533333
        k(   10) = (   0.0600357   0.1733080   0.0000000), wk =   0.1066667
        k(   11) = (   0.0600357   0.2426312   0.0000000), wk =   0.1066667
        k(   12) = (   0.0600357   0.3119545   0.0000000), wk =   0.1066667
        k(   13) = (   0.0600357   0.3812777   0.0000000), wk =   0.1066667
        k(   14) = (   0.0600357   0.4506009   0.0000000), wk =   0.1066667
        k(   15) = (   0.0600357   0.5199241   0.0000000), wk =   0.0533333
        k(   16) = (   0.1200713   0.2079696   0.0000000), wk =   0.0533333
        k(   17) = (   0.1200713   0.2772928   0.0000000), wk =   0.1066667
        k(   18) = (   0.1200713   0.3466161   0.0000000), wk =   0.1066667
        k(   19) = (   0.1200713   0.4159393   0.0000000), wk =   0.1066667
        k(   20) = (   0.1200713   0.4852625   0.0000000), wk =   0.1066667
        k(   21) = (   0.1801070   0.3119545   0.0000000), wk =   0.0533333
        k(   22) = (   0.1801070   0.3812777   0.0000000), wk =   0.1066667
        k(   23) = (   0.1801070   0.4506009   0.0000000), wk =   0.1066667
        k(   24) = (   0.1801070   0.5199241   0.0000000), wk =   0.0533333
        k(   25) = (   0.2401427   0.4159393   0.0000000), wk =   0.0533333
        k(   26) = (   0.2401427   0.4852625   0.0000000), wk =   0.1066667
        k(   27) = (   0.3001783   0.5199241   0.0000000), wk =   0.0177778

     Initial potential from superposition of free atoms

     starting charge    7.98607, renormalised to    8.00000

     negative rho (up, down):  1.111E-04 0.000E+00
     Starting wfcs are random

     Self-consistent Calculation

[...]

     negative rho (up, down):  2.906E-06 0.000E+00

[...]

     iteration #  5     ecut=    50.00 Ry     beta= 0.70
     Davidson diagonalization with overlap
     c_bands:  1 eigenvalues not converged
     ethr =  1.65E-08,  avg # of iterations =  4.3

[...]

     total energy              =     -22.78723679 Ry
     estimated scf accuracy    <          1.0E-09 Ry

     iteration #  7     ecut=    50.00 Ry     beta= 0.70
     Davidson diagonalization with overlap
     ethr =  1.28E-11,  avg # of iterations =  2.9

     End of self-consistent calculation

[...]

          k =-0.0000 0.4853 0.0000 (  4398 PWs)   bands (ev):

[...]

          k = 0.3002 0.5199 0.0000 (  4389 PWs)   bands (ev):

   -16.8769 -16.8769 -15.0918  -4.0816  -4.0816   6.6267   9.1625   9.1626

     the Fermi energy is    -4.0816 ev

!    total energy              =     -22.78723679 Ry
     estimated scf accuracy    <          1.2E-11 Ry
     smearing contrib. (-TS)   =      -0.00005015 Ry
     internal energy E=F+TS    =     -22.78718664 Ry

     The total energy is F=E-TS. E is the sum of the following terms:
     one-electron contribution =    -401.41512381 Ry
     hartree contribution      =     201.36417997 Ry
     xc contribution           =      -7.08967395 Ry
     ewald contribution        =     184.35343115 Ry

     convergence has been achieved in   7 iterations

     Forces acting on atoms (cartesian axes, Ry/au):

     atom    1 type  1   force =     0.00000000    0.00000000    0.00000000
     atom    2 type  1   force =    -0.00000000   -0.00000000    0.00000000

     Total force =     0.000000     Total SCF correction =     0.000000

     Computing stress (Cartesian axis) and pressure

          total   stress  (Ry/bohr**3)                   (kbar)     P=        8.64
   0.00014459   0.00000000   0.00000000           21.27        0.00        0.00
   0.00000000   0.00014459   0.00000000            0.00       21.27        0.00
   0.00000000   0.00000000  -0.00011288            0.00        0.00      -16.61

     Writing output data file ./work/LiC412.save/

     General routines

     Parallel routines

   This run was terminated on:  13:57:35  19Jan2024

   JOB DONE.