     Program PWSCF v.6.7MaX starts on 19Jan2024 at 15:48:20

     R & G space division:  proc/nbgrp/npool/nimage =      32
     Waiting for input...
     Reading input from standard input

     Current dimensions of program PWSCF are:
     Max number of different atomic species (ntypx) = 10
     Max number of k-points (npk) =  40000
     Max angular momentum in pseudopotentials (lmaxx) =  3
     Message from routine read_pp_mesh:
     mesh size missing, using the one in header

     Subspace diagonalization in iterative solution of the eigenvalue problem:
     a serial algorithm will be used

     bravais-lattice index     =            4
     lattice parameter (alat)  =       5.5000  a.u.
     unit-cell volume          =    1060.9894 (a.u.)^3
     number of atoms/cell      =            2
     number of atomic types    =            1
     number of electrons       =         8.00
     number of Kohn-Sham states=            8
     kinetic-energy cutoff     =      50.0000  Ry
     charge density cutoff     =     200.0000  Ry
     scf convergence threshold =      1.0E-08
     mixing beta               =       0.7000
     number of iterations used =            8  plain     mixing
     energy convergence thresh.=      1.0E-04
     force convergence thresh. =      1.0E-08
     press convergence thresh. =      1.0E-03
     Exchange-correlation= PBE
                           (   1   4   3   4   0   0   0)
     nstep                     =           50

     celldm(1)=   5.500000  celldm(2)=   0.000000  celldm(3)=   7.363636
     celldm(4)=   0.000000  celldm(5)=   0.000000  celldm(6)=   0.000000

     crystal axes: (cart. coord. in units of alat)
               a(1) = (   1.000000   0.000000   0.000000 )
               a(2) = (  -0.500000   0.866025   0.000000 )
               a(3) = (   0.000000   0.000000   7.363636 )

     reciprocal axes: (cart. coord. in units 2 pi/alat)
               b(1) = (  1.000000  0.577350  0.000000 )
               b(2) = (  0.000000  1.154701  0.000000 )
               b(3) = (  0.000000  0.000000  0.135802 )

     PseudoPot. # 1 for C  read from file:
     /home/yhkim/qe-6.7/pseudo/ONCV1/1.2/C_ONCV_PBE-1.2.upf
     MD5 check sum: 1a5f83a7b1f58d24996abe00ed223ac6
     Pseudo is Norm-conserving, Zval =  4.0
     Generated using ONCVPSP code by D. R. Hamann
     Using radial grid of  602 points,  4 beta functions with:
                l(1) =   0
                l(2) =   0
                l(3) =   1
                l(4) =   1

     atomic species   valence    mass     pseudopotential
        C              4.00    12.01070     C ( 1.00)

     24 Sym. Ops., with inversion, found

   Cartesian axes

     site n.     atom                  positions (alat units)
         1           C   tau(   1) = (  -0.0000000   0.5773503   3.6818182  )
         2           C   tau(   2) = (   0.5000000   0.2886751   3.6818182  )

     number of k points=    27  Methfessel-Paxton smearing, width (Ry)=  0.0100
                       cart. coord. in units 2pi/alat
        k(    1) = (   0.0000000   0.0000000   0.0000000), wk =   0.0088889
        k(    2) = (   0.0000000   0.0769800   0.0000000), wk =   0.0533333
        k(    3) = (   0.0000000   0.1539601   0.0000000), wk =   0.0533333
        k(    4) = (   0.0000000   0.2309401   0.0000000), wk =   0.0533333
        k(    5) = (   0.0000000   0.3079201   0.0000000), wk =   0.0533333
        k(    6) = (   0.0000000   0.3849002   0.0000000), wk =   0.0533333
        k(    7) = (   0.0000000   0.4618802   0.0000000), wk =   0.0533333
        k(    8) = (   0.0000000   0.5388603   0.0000000), wk =   0.0533333
        k(    9) = (   0.0666667   0.1154701   0.0000000), wk =   0.0533333
        k(   10) = (   0.0666667   0.1924501   0.0000000), wk =   0.1066667
        k(   11) = (   0.0666667   0.2694301   0.0000000), wk =   0.1066667
        k(   12) = (   0.0666667   0.3464102   0.0000000), wk =   0.1066667
        k(   13) = (   0.0666667   0.4233902   0.0000000), wk =   0.1066667
        k(   14) = (   0.0666667   0.5003702   0.0000000), wk =   0.1066667
        k(   15) = (   0.0666667   0.5773503   0.0000000), wk =   0.0533333
        k(   16) = (   0.1333333   0.2309401   0.0000000), wk =   0.0533333
        k(   17) = (   0.1333333   0.3079201   0.0000000), wk =   0.1066667
        k(   18) = (   0.1333333   0.3849002   0.0000000), wk =   0.1066667
        k(   19) = (   0.1333333   0.4618802   0.0000000), wk =   0.1066667
        k(   20) = (   0.1333333   0.5388603   0.0000000), wk =   0.1066667
        k(   21) = (   0.2000000   0.3464102   0.0000000), wk =   0.0533333
        k(   22) = (   0.2000000   0.4233902   0.0000000), wk =   0.1066667
        k(   23) = (   0.2000000   0.5003702   0.0000000), wk =   0.1066667
        k(   24) = (   0.2000000   0.5773503   0.0000000), wk =   0.0533333
        k(   25) = (   0.2666667   0.4618802   0.0000000), wk =   0.0533333
        k(   26) = (   0.2666667   0.5388603   0.0000000), wk =   0.1066667
        k(   27) = (   0.3333333   0.5773503   0.0000000), wk =   0.0177778

     Initial potential from superposition of free atoms

     starting charge    7.98607, renormalised to    8.00000

     negative rho (up, down):  1.383E-04 0.000E+00
     Starting wfcs are random

     Self-consistent Calculation

     iteration #  1     ecut=    50.00 Ry     beta= 0.70
     Davidson diagonalization with overlap
     ethr =  1.00E-02,  avg # of iterations = 11.5

     Threshold (ethr) on eigenvalues was too large:
     Diagonalizing with lowered threshold

     Davidson diagonalization with overlap
     ethr =  3.80E-04,  avg # of iterations =  6.7

     negative rho (up, down):  2.109E-05 0.000E+00

     total energy              =     -22.57826530 Ry
     estimated scf accuracy    <       0.03534414 Ry

[...]

     iteration #  3     ecut=    50.00 Ry     beta= 0.70
     Davidson diagonalization with overlap
     c_bands:  1 eigenvalues not converged
     ethr =  1.93E-05,  avg # of iterations =  7.6

[...]

     End of self-consistent calculation

          k = 0.0000 0.0000 0.0000 (  6355 PWs)   bands (ev):

   -21.2964 -10.1730  -8.3019  -8.3019  -2.1517  -0.8689  -0.1930   0.1979

[...]

     the Fermi energy is    -5.3727 ev

!    total energy              =     -22.58133781 Ry
     estimated scf accuracy    <          3.6E-09 Ry
     smearing contrib. (-TS)   =      -0.00005015 Ry
     internal energy E=F+TS    =     -22.58128766 Ry

     The total energy is F=E-TS. E is the sum of the following terms:
     one-electron contribution =    -277.02567104 Ry
     hartree contribution      =     138.90019064 Ry
     xc contribution           =      -6.38555590 Ry
     ewald contribution        =     121.92974863 Ry

     convergence has been achieved in   5 iterations

     Forces acting on atoms (cartesian axes, Ry/au):

     atom    1 type  1   force =     0.00000000    0.00000000    0.00000000
     atom    2 type  1   force =     0.00000000    0.00000000    0.00000000

     Total force =     0.000000     Total SCF correction =     0.000000

     Computing stress (Cartesian axis) and pressure

          total   stress  (Ry/bohr**3)                   (kbar)     P=     -108.62
  -0.00107359   0.00000000  -0.00000000         -157.93        0.00       -0.00
   0.00000000  -0.00107359   0.00000000            0.00     -157.93        0.00
   0.00000000   0.00000000  -0.00006793            0.00        0.00       -9.99

     BFGS Geometry Optimization
     Energy error            =      0.0E+00
     Gradient error          =      0.0E+00
     Cell gradient error     =      1.1E-03

     number of scf cycles    =   1
     number of bfgs steps    =   0

     enthalpy new            =     -22.5813378144 Ry

     new trust radius        =       0.1748488229 bohr
     new conv_thr            =       0.0000000100 Ry

     new unit-cell volume =   1004.80046 a.u.^3 (   148.89607 Ang^3 )
     density =      0.26789 g/cm^3

CELL_PARAMETERS (alat=  5.50000000)
   0.973160328   0.000000000   0.000000000
  -0.486580164   0.842781566   0.000000000
   0.000000000   0.000000000   7.363636364

ATOMIC_POSITIONS (crystal)
C             0.3333333333        0.6666666667        0.5000000000
C             0.6666666667        0.3333333333        0.5000000000

     Writing output data file ./work/LiC550.save/
     NEW-OLD atomic charge density approx. for the potential

     negative rho (up, down):  7.790E-06 0.000E+00
     extrapolated charge    7.55342, renormalised to    8.00000

[...]

          k =-0.0000 0.0791 0.0000 (  6341 PWs)   bands (ev):

[...]

     Energy error            =      5.9E-02
     Gradient error          =      1.8E-26
     Cell gradient error     =      1.0E-03

[...]

     enthalpy old            =     -22.5813378144 Ry
     enthalpy new            =     -22.6403868485 Ry

     CASE: enthalpy_new < enthalpy_old

     WARNING: bfgs curvature condition failed, Theta= 0.863
     new trust radius        =       0.1923337052 bohr
     new conv_thr            =            1.0E-10 Ry

[...]

     negative rho (up, down):  3.041E-06 0.000E+00
     extrapolated charge    7.94361, renormalised to    8.00000

[...]

     Writing output data file ./work/LiC550.save/
     NEW-OLD atomic charge density approx. for the potential
     extrapolated charge    7.99682, renormalised to    8.00000

[...]

     CASE: enthalpy_new < enthalpy_old

     small trust_radius: resetting bfgs history

     new trust radius        =       0.0000050681 bohr
     new conv_thr            =            1.0E-10 Ry

[...]

     Writing output data file ./work/LiC550.save/
     NEW-OLD atomic charge density approx. for the potential
     extrapolated charge    8.00001, renormalised to    8.00000

[...]

     Energy error            =      8.9E-11
     Gradient error          =      0.0E+00
     Cell gradient error     =      3.3E-08

     number of scf cycles    =   9
     number of bfgs steps    =   8

     enthalpy old            =     -22.8034318031 Ry
     enthalpy new            =     -22.8034318031 Ry

     CASE: enthalpy_new > enthalpy_old

     new trust radius        =       0.0000009296 bohr

     trust_radius < trust_radius_min

     resetting bfgs history

     Message from routine bfgs:
     history already reset at previous step: stopping
     new conv_thr            =            1.0E-10 Ry

     new unit-cell volume =    758.10952 a.u.^3 (   112.34024 Ang^3 )
     density =      0.35507 g/cm^3

[...]

ATOMIC_POSITIONS (crystal)
C             0.3333333333        0.6666666667        0.5000000000
C             0.6666666667        0.3333333333        0.5000000000

     Writing output data file ./work/LiC550.save/
     NEW-OLD atomic charge density approx. for the potential

[...]

     Threshold (ethr) on eigenvalues was too large:
     Diagonalizing with lowered threshold

     Davidson diagonalization with overlap
     ethr =  9.89E-13,  avg # of iterations =  2.0

[...]

     Message from routine bfgs:
     history already reset at previous step: stopping
     Energy error            =      2.4E-11
     Gradient error          =      0.0E+00
     Cell gradient error     =      1.9E-08

     bfgs converged in  10 scf cycles and   8 bfgs steps
     (criteria: energy <  1.0E-04 Ry, force <  1.0E-08Ry/Bohr, cell <  1.0E-03kbar)

     End of BFGS Geometry Optimization

     Final enthalpy =     -22.8034318032 Ry

     File ./work/LiC550.bfgs deleted, as requested
Begin final coordinates
     new unit-cell volume =    758.10952 a.u.^3 (   112.34024 Ang^3 )
     density =      0.35507 g/cm^3

CELL_PARAMETERS (alat=  5.50000000)
   0.845299202   0.000000000   0.000000000
  -0.422649601   0.732050583   0.000000000
   0.000000000   0.000000000   7.363636364

ATOMIC_POSITIONS (crystal)
C             0.3333333333        0.6666666667        0.5000000000
C             0.6666666667        0.3333333333        0.5000000000
End final coordinates

     Writing output data file ./work/LiC550.save/

     Final scf calculation at the relaxed structure.
     The G-vectors are recalculated for the final unit cell
     Results may differ from those at the preceding step.

     bravais-lattice index     =            4
     lattice parameter (alat)  =       5.5000  a.u.
     unit-cell volume          =     758.1095 (a.u.)^3
     number of atoms/cell      =            2
     number of atomic types    =            1
     number of electrons       =         8.00
     number of Kohn-Sham states=            8
     kinetic-energy cutoff     =      50.0000  Ry
     charge density cutoff     =     200.0000  Ry
     scf convergence threshold =      1.0E-10
     mixing beta               =       0.7000
     number of iterations used =            8  plain     mixing
     press convergence thresh. =      1.0E-03
     Exchange-correlation= PBE
                           (   1   4   3   4   0   0   0)

     celldm(1)=   5.500000  celldm(2)=   0.000000  celldm(3)=   7.363636
     celldm(4)=   0.000000  celldm(5)=   0.000000  celldm(6)=   0.000000

     crystal axes: (cart. coord. in units of alat)
               a(1) = (   0.845299   0.000000   0.000000 )
               a(2) = (  -0.422650   0.732051   0.000000 )
               a(3) = (   0.000000   0.000000   7.363636 )

     reciprocal axes: (cart. coord. in units 2 pi/alat)
               b(1) = (  1.183013  0.683013  0.000000 )
               b(2) = ( -0.000000  1.366026  0.000000 )
               b(3) = (  0.000000  0.000000  0.135802 )

     PseudoPot. # 1 for C  read from file:
     /home/yhkim/qe-6.7/pseudo/ONCV1/1.2/C_ONCV_PBE-1.2.upf
     MD5 check sum: 1a5f83a7b1f58d24996abe00ed223ac6
     Pseudo is Norm-conserving, Zval =  4.0
     Generated using ONCVPSP code by D. R. Hamann
     Using radial grid of  602 points,  4 beta functions with:
                l(1) =   0
                l(2) =   0
                l(3) =   1
                l(4) =   1

     atomic species   valence    mass     pseudopotential
        C              4.00    12.01070     C ( 1.00)

     24 Sym. Ops., with inversion, found

   Cartesian axes

     site n.     atom                  positions (alat units)
         1           C   tau(   1) = (  -0.0000000   0.4880337   3.6818182  )
         2           C   tau(   2) = (   0.4226496   0.2440169   3.6818182  )

     number of k points=    27  Methfessel-Paxton smearing, width (Ry)=  0.0100
                       cart. coord. in units 2pi/alat
        k(    1) = (   0.0000000   0.0000000   0.0000000), wk =   0.0088889
        k(    2) = (  -0.0000000   0.0910684   0.0000000), wk =   0.0533333
        k(    3) = (  -0.0000000   0.1821368   0.0000000), wk =   0.0533333
        k(    4) = (  -0.0000000   0.2732052   0.0000000), wk =   0.0533333
        k(    5) = (  -0.0000000   0.3642736   0.0000000), wk =   0.0533333
        k(    6) = (  -0.0000000   0.4553419   0.0000000), wk =   0.0533333
        k(    7) = (  -0.0000000   0.5464103   0.0000000), wk =   0.0533333
        k(    8) = (  -0.0000000   0.6374787   0.0000000), wk =   0.0533333
        k(    9) = (   0.0788675   0.1366026   0.0000000), wk =   0.0533333
        k(   10) = (   0.0788675   0.2276710   0.0000000), wk =   0.1066667
        k(   11) = (   0.0788675   0.3187394   0.0000000), wk =   0.1066667
        k(   12) = (   0.0788675   0.4098077   0.0000000), wk =   0.1066667
        k(   13) = (   0.0788675   0.5008761   0.0000000), wk =   0.1066667
        k(   14) = (   0.0788675   0.5919445   0.0000000), wk =   0.1066667
        k(   15) = (   0.0788675   0.6830129   0.0000000), wk =   0.0533333
        k(   16) = (   0.1577351   0.2732052   0.0000000), wk =   0.0533333
        k(   17) = (   0.1577351   0.3642736   0.0000000), wk =   0.1066667
        k(   18) = (   0.1577351   0.4553419   0.0000000), wk =   0.1066667
        k(   19) = (   0.1577351   0.5464103   0.0000000), wk =   0.1066667
        k(   20) = (   0.1577351   0.6374787   0.0000000), wk =   0.1066667
        k(   21) = (   0.2366026   0.4098077   0.0000000), wk =   0.0533333
        k(   22) = (   0.2366026   0.5008761   0.0000000), wk =   0.1066667
        k(   23) = (   0.2366026   0.5919445   0.0000000), wk =   0.1066667
        k(   24) = (   0.2366026   0.6830129   0.0000000), wk =   0.0533333
        k(   25) = (   0.3154702   0.5464103   0.0000000), wk =   0.0533333
        k(   26) = (   0.3154702   0.6374787   0.0000000), wk =   0.1066667
        k(   27) = (   0.3943377   0.6830129   0.0000000), wk =   0.0177778

     Initial potential from superposition of free atoms

     starting charge    7.98607, renormalised to    8.00000

     negative rho (up, down):  1.141E-04 0.000E+00
     Starting wfcs are random

     Self-consistent Calculation

[...]

     negative rho (up, down):  2.983E-06 0.000E+00

[...]

     iteration #  4     ecut=    50.00 Ry     beta= 0.70
     Davidson diagonalization with overlap
     c_bands:  1 eigenvalues not converged
     ethr =  2.15E-06,  avg # of iterations =  5.3

[...]

     total energy              =     -22.79096846 Ry
     estimated scf accuracy    <          1.0E-09 Ry

     iteration #  7     ecut=    50.00 Ry     beta= 0.70
     Davidson diagonalization with overlap
     ethr =  1.30E-11,  avg # of iterations =  3.2

     End of self-consistent calculation

[...]

          k =-0.0000 0.6375 0.0000 (  4555 PWs)   bands (ev):

[...]

          k = 0.3943 0.6830 0.0000 (  4509 PWs)   bands (ev):

   -16.8764 -16.8764 -14.8705  -4.2228  -4.2228   6.4107   8.7062   8.7063

     the Fermi energy is    -4.2228 ev

!    total energy              =     -22.79096846 Ry
     estimated scf accuracy    <          1.1E-11 Ry
     smearing contrib. (-TS)   =      -0.00005015 Ry
     internal energy E=F+TS    =     -22.79091831 Ry

     The total energy is F=E-TS. E is the sum of the following terms:
     one-electron contribution =    -388.57525352 Ry
     hartree contribution      =     194.91070805 Ry
     xc contribution           =      -7.01972968 Ry
     ewald contribution        =     177.89335684 Ry

     convergence has been achieved in   7 iterations

     Forces acting on atoms (cartesian axes, Ry/au):

     atom    1 type  1   force =    -0.00000000   -0.00000000    0.00000000
     atom    2 type  1   force =     0.00000000    0.00000000    0.00000000

     Total force =     0.000000     Total SCF correction =     0.000000

     Computing stress (Cartesian axis) and pressure

          total   stress  (Ry/bohr**3)                   (kbar)     P=      -12.75
  -0.00007590   0.00000000   0.00000000          -11.16        0.00        0.00
   0.00000000  -0.00007590   0.00000000            0.00      -11.16        0.00
  -0.00000000  -0.00000000  -0.00010817           -0.00       -0.00      -15.91

     Writing output data file ./work/LiC550.save/

     General routines

     Parallel routines

   This run was terminated on:  15:48:46  19Jan2024

   JOB DONE.