     Program PWSCF v.6.7MaX starts on 19Jan2024 at 14:13:21

     R & G space division:  proc/nbgrp/npool/nimage =      32
     Waiting for input...
     Reading input from standard input

     Current dimensions of program PWSCF are:
     Max number of different atomic species (ntypx) = 10
     Max number of k-points (npk) =  40000
     Max angular momentum in pseudopotentials (lmaxx) =  3
     Message from routine read_pp_mesh:
     mesh size missing, using the one in header

     Subspace diagonalization in iterative solution of the eigenvalue problem:
     a serial algorithm will be used

     bravais-lattice index     =            4
     lattice parameter (alat)  =       4.6200  a.u.
     unit-cell volume          =     748.6341 (a.u.)^3
     number of atoms/cell      =            2
     number of atomic types    =            1
     number of electrons       =         8.00
     number of Kohn-Sham states=            8
     kinetic-energy cutoff     =      50.0000  Ry
     charge density cutoff     =     200.0000  Ry
     scf convergence threshold =      1.0E-08
     mixing beta               =       0.7000
     number of iterations used =            8  plain     mixing
     energy convergence thresh.=      1.0E-04
     force convergence thresh. =      1.0E-08
     press convergence thresh. =      1.0E-03
     Exchange-correlation= PBE
                           (   1   4   3   4   0   0   0)
     nstep                     =           50

     celldm(1)=   4.620000  celldm(2)=   0.000000  celldm(3)=   8.766234
     celldm(4)=   0.000000  celldm(5)=   0.000000  celldm(6)=   0.000000

     crystal axes: (cart. coord. in units of alat)
               a(1) = (   1.000000   0.000000   0.000000 )
               a(2) = (  -0.500000   0.866025   0.000000 )
               a(3) = (   0.000000   0.000000   8.766234 )

     reciprocal axes: (cart. coord. in units 2 pi/alat)
               b(1) = (  1.000000  0.577350  0.000000 )
               b(2) = (  0.000000  1.154701  0.000000 )
               b(3) = (  0.000000  0.000000  0.114074 )

     PseudoPot. # 1 for C  read from file:
     /home/yhkim/qe-6.7/pseudo/ONCV1/1.2/C_ONCV_PBE-1.2.upf
     MD5 check sum: 1a5f83a7b1f58d24996abe00ed223ac6
     Pseudo is Norm-conserving, Zval =  4.0
     Generated using ONCVPSP code by D. R. Hamann
     Using radial grid of  602 points,  4 beta functions with:
                l(1) =   0
                l(2) =   0
                l(3) =   1
                l(4) =   1

     atomic species   valence    mass     pseudopotential
        C              4.00    12.01070     C ( 1.00)

     24 Sym. Ops., with inversion, found

   Cartesian axes

     site n.     atom                  positions (alat units)
         1           C   tau(   1) = (  -0.0000000   0.5773503   4.3831169  )
         2           C   tau(   2) = (   0.5000000   0.2886751   4.3831169  )

     number of k points=    27  Methfessel-Paxton smearing, width (Ry)=  0.0100
                       cart. coord. in units 2pi/alat
        k(    1) = (   0.0000000   0.0000000   0.0000000), wk =   0.0088889
        k(    2) = (   0.0000000   0.0769800   0.0000000), wk =   0.0533333
        k(    3) = (   0.0000000   0.1539601   0.0000000), wk =   0.0533333
        k(    4) = (   0.0000000   0.2309401   0.0000000), wk =   0.0533333
        k(    5) = (   0.0000000   0.3079201   0.0000000), wk =   0.0533333
        k(    6) = (   0.0000000   0.3849002   0.0000000), wk =   0.0533333
        k(    7) = (   0.0000000   0.4618802   0.0000000), wk =   0.0533333
        k(    8) = (   0.0000000   0.5388603   0.0000000), wk =   0.0533333
        k(    9) = (   0.0666667   0.1154701   0.0000000), wk =   0.0533333
        k(   10) = (   0.0666667   0.1924501   0.0000000), wk =   0.1066667
        k(   11) = (   0.0666667   0.2694301   0.0000000), wk =   0.1066667
        k(   12) = (   0.0666667   0.3464102   0.0000000), wk =   0.1066667
        k(   13) = (   0.0666667   0.4233902   0.0000000), wk =   0.1066667
        k(   14) = (   0.0666667   0.5003702   0.0000000), wk =   0.1066667
        k(   15) = (   0.0666667   0.5773503   0.0000000), wk =   0.0533333
        k(   16) = (   0.1333333   0.2309401   0.0000000), wk =   0.0533333
        k(   17) = (   0.1333333   0.3079201   0.0000000), wk =   0.1066667
        k(   18) = (   0.1333333   0.3849002   0.0000000), wk =   0.1066667
        k(   19) = (   0.1333333   0.4618802   0.0000000), wk =   0.1066667
        k(   20) = (   0.1333333   0.5388603   0.0000000), wk =   0.1066667
        k(   21) = (   0.2000000   0.3464102   0.0000000), wk =   0.0533333
        k(   22) = (   0.2000000   0.4233902   0.0000000), wk =   0.1066667
        k(   23) = (   0.2000000   0.5003702   0.0000000), wk =   0.1066667
        k(   24) = (   0.2000000   0.5773503   0.0000000), wk =   0.0533333
        k(   25) = (   0.2666667   0.4618802   0.0000000), wk =   0.0533333
        k(   26) = (   0.2666667   0.5388603   0.0000000), wk =   0.1066667
        k(   27) = (   0.3333333   0.5773503   0.0000000), wk =   0.0177778

     Initial potential from superposition of free atoms

     starting charge    7.98607, renormalised to    8.00000

     negative rho (up, down):  1.147E-04 0.000E+00
     Starting wfcs are random

     Self-consistent Calculation

     iteration #  1     ecut=    50.00 Ry     beta= 0.70
     Davidson diagonalization with overlap
     ethr =  1.00E-02,  avg # of iterations = 11.7

     negative rho (up, down):  2.571E-08 0.000E+00

     total energy              =     -22.75864215 Ry
     estimated scf accuracy    <       0.17924693 Ry

[...]

     End of self-consistent calculation

          k = 0.0000 0.0000 0.0000 (  4435 PWs)   bands (ev):

   -23.9218 -11.9718  -7.2423  -7.2423  -0.9849  -0.2035   0.5840   0.9390

[...]

     the Fermi energy is    -4.1676 ev

!    total energy              =     -22.79014372 Ry
     estimated scf accuracy    <          3.5E-10 Ry
     smearing contrib. (-TS)   =      -0.00005015 Ry
     internal energy E=F+TS    =     -22.79009357 Ry

     The total energy is F=E-TS. E is the sum of the following terms:
     one-electron contribution =    -393.55110317 Ry
     hartree contribution      =     197.41148541 Ry
     xc contribution           =      -7.04691631 Ry
     ewald contribution        =     180.39644048 Ry

     convergence has been achieved in   6 iterations

     Forces acting on atoms (cartesian axes, Ry/au):

     atom    1 type  1   force =     0.00000000    0.00000000    0.00000000
     atom    2 type  1   force =     0.00000000    0.00000000    0.00000000

     Total force =     0.000000     Total SCF correction =     0.000000

     Computing stress (Cartesian axis) and pressure

          total   stress  (Ry/bohr**3)                   (kbar)     P=       -4.73
   0.00000690   0.00000000  -0.00000000            1.01        0.00       -0.00
   0.00000000   0.00000690   0.00000000            0.00        1.01        0.00
   0.00000000   0.00000000  -0.00011018            0.00        0.00      -16.21

     BFGS Geometry Optimization
     Energy error            =      0.0E+00
     Gradient error          =      0.0E+00
     Cell gradient error     =      6.9E-06

     number of scf cycles    =   1
     number of bfgs steps    =   0

     enthalpy new            =     -22.7901437243 Ry

     new trust radius        =       0.0009432785 bohr
     new conv_thr            =       0.0000000100 Ry

     new unit-cell volume =    748.89222 a.u.^3 (   110.97438 Ang^3 )
     density =      0.35944 g/cm^3

CELL_PARAMETERS (alat=  4.62000000)
   1.000172375   0.000000000   0.000000000
  -0.500086188   0.866174685   0.000000000
   0.000000000   0.000000000   8.766233766

ATOMIC_POSITIONS (crystal)
C             0.3333333333        0.6666666667        0.5000000000
C             0.6666666667        0.3333333333        0.5000000000

     Writing output data file ./work/LiC462.save/
     NEW-OLD atomic charge density approx. for the potential
     extrapolated charge    8.00275, renormalised to    8.00000

[...]

     Threshold (ethr) on eigenvalues was too large:
     Diagonalizing with lowered threshold

     Davidson diagonalization with overlap
     ethr =  2.79E-08,  avg # of iterations =  1.0

[...]

          k =-0.0000 0.0770 0.0000 (  4441 PWs)   bands (ev):

[...]

     Energy error            =      1.5E-06
     Gradient error          =      0.0E+00
     Cell gradient error     =      4.4E-06

[...]

     enthalpy old            =     -22.7901437243 Ry
     enthalpy new            =     -22.7901451792 Ry

     CASE: enthalpy_new < enthalpy_old

[...]

     small trust_radius: resetting bfgs history

[...]

     number of scf cycles    =   5
     number of bfgs steps    =   4

     enthalpy old            =     -22.7901461755 Ry
     enthalpy new            =     -22.7901461755 Ry

     CASE: enthalpy_new < enthalpy_old

     WARNING: bfgs curvature condition failed, Theta= 0.700
     uphill step: resetting bfgs history

     Message from routine bfgs:
     history already reset at previous step: stopping
     small trust_radius: resetting bfgs history

     new trust radius        =       0.0000017161 bohr
     new conv_thr            =            1.0E-10 Ry

     new unit-cell volume =    749.34616 a.u.^3 (   111.04164 Ang^3 )
     density =      0.35922 g/cm^3

[...]

ATOMIC_POSITIONS (crystal)
C             0.3333333333        0.6666666667        0.5000000000
C             0.6666666667        0.3333333333        0.5000000000

     Writing output data file ./work/LiC462.save/
     NEW-OLD atomic charge density approx. for the potential
     extrapolated charge    8.00001, renormalised to    8.00000

[...]

     Threshold (ethr) on eigenvalues was too large:
     Diagonalizing with lowered threshold

     Davidson diagonalization with overlap
     ethr =  6.15E-14,  avg # of iterations =  2.0

[...]

     Energy error            =      5.9E-12
     Gradient error          =      0.0E+00
     Cell gradient error     =      5.1E-09

     bfgs converged in   6 scf cycles and   5 bfgs steps
     (criteria: energy <  1.0E-04 Ry, force <  1.0E-08Ry/Bohr, cell <  1.0E-03kbar)

     End of BFGS Geometry Optimization

     Final enthalpy =     -22.7901461755 Ry

     File ./work/LiC462.bfgs deleted, as requested
Begin final coordinates
     new unit-cell volume =    749.34616 a.u.^3 (   111.04164 Ang^3 )
     density =      0.35922 g/cm^3

CELL_PARAMETERS (alat=  4.62000000)
   1.000475457   0.000000000   0.000000000
  -0.500237728   0.866437162   0.000000000
   0.000000000   0.000000000   8.766233766

ATOMIC_POSITIONS (crystal)
C             0.3333333333        0.6666666667        0.5000000000
C             0.6666666667        0.3333333333        0.5000000000
End final coordinates

     Writing output data file ./work/LiC462.save/

     Final scf calculation at the relaxed structure.
     The G-vectors are recalculated for the final unit cell
     Results may differ from those at the preceding step.

     bravais-lattice index     =            4
     lattice parameter (alat)  =       4.6200  a.u.
     unit-cell volume          =     749.3462 (a.u.)^3
     number of atoms/cell      =            2
     number of atomic types    =            1
     number of electrons       =         8.00
     number of Kohn-Sham states=            8
     kinetic-energy cutoff     =      50.0000  Ry
     charge density cutoff     =     200.0000  Ry
     scf convergence threshold =      1.0E-10
     mixing beta               =       0.7000
     number of iterations used =            8  plain     mixing
     press convergence thresh. =      1.0E-03
     Exchange-correlation= PBE
                           (   1   4   3   4   0   0   0)

     celldm(1)=   4.620000  celldm(2)=   0.000000  celldm(3)=   8.766234
     celldm(4)=   0.000000  celldm(5)=   0.000000  celldm(6)=   0.000000

     crystal axes: (cart. coord. in units of alat)
               a(1) = (   1.000475   0.000000   0.000000 )
               a(2) = (  -0.500238   0.866437   0.000000 )
               a(3) = (   0.000000   0.000000   8.766234 )

     reciprocal axes: (cart. coord. in units 2 pi/alat)
               b(1) = (  0.999525  0.577076  0.000000 )
               b(2) = ( -0.000000  1.154152  0.000000 )
               b(3) = (  0.000000  0.000000  0.114074 )

     PseudoPot. # 1 for C  read from file:
     /home/yhkim/qe-6.7/pseudo/ONCV1/1.2/C_ONCV_PBE-1.2.upf
     MD5 check sum: 1a5f83a7b1f58d24996abe00ed223ac6
     Pseudo is Norm-conserving, Zval =  4.0
     Generated using ONCVPSP code by D. R. Hamann
     Using radial grid of  602 points,  4 beta functions with:
                l(1) =   0
                l(2) =   0
                l(3) =   1
                l(4) =   1

     atomic species   valence    mass     pseudopotential
        C              4.00    12.01070     C ( 1.00)

     24 Sym. Ops., with inversion, found

   Cartesian axes

     site n.     atom                  positions (alat units)
         1           C   tau(   1) = (  -0.0000000   0.5776248   4.3831169  )
         2           C   tau(   2) = (   0.5002377   0.2888124   4.3831169  )

     number of k points=    27  Methfessel-Paxton smearing, width (Ry)=  0.0100
                       cart. coord. in units 2pi/alat
        k(    1) = (   0.0000000   0.0000000   0.0000000), wk =   0.0088889
        k(    2) = (  -0.0000000   0.0769435   0.0000000), wk =   0.0533333
        k(    3) = (  -0.0000000   0.1538869   0.0000000), wk =   0.0533333
        k(    4) = (  -0.0000000   0.2308304   0.0000000), wk =   0.0533333
        k(    5) = (  -0.0000000   0.3077738   0.0000000), wk =   0.0533333
        k(    6) = (  -0.0000000   0.3847173   0.0000000), wk =   0.0533333
        k(    7) = (  -0.0000000   0.4616607   0.0000000), wk =   0.0533333
        k(    8) = (  -0.0000000   0.5386042   0.0000000), wk =   0.0533333
        k(    9) = (   0.0666350   0.1154152   0.0000000), wk =   0.0533333
        k(   10) = (   0.0666350   0.1923586   0.0000000), wk =   0.1066667
        k(   11) = (   0.0666350   0.2693021   0.0000000), wk =   0.1066667
        k(   12) = (   0.0666350   0.3462455   0.0000000), wk =   0.1066667
        k(   13) = (   0.0666350   0.4231890   0.0000000), wk =   0.1066667
        k(   14) = (   0.0666350   0.5001324   0.0000000), wk =   0.1066667
        k(   15) = (   0.0666350   0.5770759   0.0000000), wk =   0.0533333
        k(   16) = (   0.1332700   0.2308304   0.0000000), wk =   0.0533333
        k(   17) = (   0.1332700   0.3077738   0.0000000), wk =   0.1066667
        k(   18) = (   0.1332700   0.3847173   0.0000000), wk =   0.1066667
        k(   19) = (   0.1332700   0.4616607   0.0000000), wk =   0.1066667
        k(   20) = (   0.1332700   0.5386042   0.0000000), wk =   0.1066667
        k(   21) = (   0.1999050   0.3462455   0.0000000), wk =   0.0533333
        k(   22) = (   0.1999050   0.4231890   0.0000000), wk =   0.1066667
        k(   23) = (   0.1999050   0.5001324   0.0000000), wk =   0.1066667
        k(   24) = (   0.1999050   0.5770759   0.0000000), wk =   0.0533333
        k(   25) = (   0.2665399   0.4616607   0.0000000), wk =   0.0533333
        k(   26) = (   0.2665399   0.5386042   0.0000000), wk =   0.1066667
        k(   27) = (   0.3331749   0.5770759   0.0000000), wk =   0.0177778

     Initial potential from superposition of free atoms

     starting charge    7.98607, renormalised to    8.00000

     negative rho (up, down):  1.141E-04 0.000E+00
     Starting wfcs are random

     Self-consistent Calculation

     iteration #  1     ecut=    50.00 Ry     beta= 0.70
     Davidson diagonalization with overlap
     c_bands:  1 eigenvalues not converged
     c_bands:  2 eigenvalues not converged
     c_bands:  3 eigenvalues not converged
     c_bands:  5 eigenvalues not converged
     c_bands:  4 eigenvalues not converged
     c_bands:  4 eigenvalues not converged
     c_bands:  2 eigenvalues not converged
     c_bands:  2 eigenvalues not converged
     c_bands:  3 eigenvalues not converged
     c_bands:  4 eigenvalues not converged
     c_bands:  4 eigenvalues not converged
     c_bands:  4 eigenvalues not converged
     c_bands:  2 eigenvalues not converged
     c_bands:  3 eigenvalues not converged
     c_bands:  2 eigenvalues not converged
     c_bands:  4 eigenvalues not converged
     c_bands:  4 eigenvalues not converged
     c_bands:  3 eigenvalues not converged
     c_bands:  3 eigenvalues not converged
     c_bands:  3 eigenvalues not converged
     c_bands:  4 eigenvalues not converged
     c_bands:  3 eigenvalues not converged
     c_bands:  3 eigenvalues not converged
     c_bands:  3 eigenvalues not converged
     c_bands:  3 eigenvalues not converged
     c_bands:  4 eigenvalues not converged
     c_bands:  3 eigenvalues not converged
     ethr =  1.00E-06,  avg # of iterations = 23.0

[...]

     negative rho (up, down):  3.005E-06 0.000E+00

[...]

     iteration #  5     ecut=    50.00 Ry     beta= 0.70
     Davidson diagonalization with overlap
     c_bands:  1 eigenvalues not converged
     ethr =  1.55E-08,  avg # of iterations =  4.4

[...]

     total energy              =     -22.79021794 Ry
     estimated scf accuracy    <          8.7E-10 Ry

     iteration #  7     ecut=    50.00 Ry     beta= 0.70
     Davidson diagonalization with overlap
     ethr =  1.09E-11,  avg # of iterations =  3.1

     End of self-consistent calculation

[...]

          k =-0.0000 0.5386 0.0000 (  4507 PWs)   bands (ev):

[...]

          k = 0.3332 0.5771 0.0000 (  4425 PWs)   bands (ev):

   -16.8768 -16.8768 -14.9506  -4.1718  -4.1718   6.4879   8.8754   8.8760

     the Fermi energy is    -4.1718 ev

!    total energy              =     -22.79021794 Ry
     estimated scf accuracy    <          1.1E-11 Ry
     smearing contrib. (-TS)   =      -0.00005015 Ry
     internal energy E=F+TS    =     -22.79016779 Ry

     The total energy is F=E-TS. E is the sum of the following terms:
     one-electron contribution =    -393.17272683 Ry
     hartree contribution      =     197.22132872 Ry
     xc contribution           =      -7.04485444 Ry
     ewald contribution        =     180.20608475 Ry

     convergence has been achieved in   7 iterations

     Forces acting on atoms (cartesian axes, Ry/au):

     atom    1 type  1   force =    -0.00000000   -0.00000000    0.00000000
     atom    2 type  1   force =     0.00000000    0.00000000    0.00000000

     Total force =     0.000000     Total SCF correction =     0.000000

     Computing stress (Cartesian axis) and pressure

          total   stress  (Ry/bohr**3)                   (kbar)     P=       -5.36
   0.00000036   0.00000000   0.00000000            0.05        0.00        0.00
   0.00000000   0.00000036   0.00000000            0.00        0.05        0.00
   0.00000000   0.00000000  -0.00011000            0.00        0.00      -16.18

     Writing output data file ./work/LiC462.save/

     General routines

     Parallel routines

   This run was terminated on:  14:13:29  19Jan2024

   JOB DONE.