     Program PWSCF v.6.7MaX starts on 19Jan2024 at 15:47:13

     R & G space division:  proc/nbgrp/npool/nimage =      32
     Waiting for input...
     Reading input from standard input

     Current dimensions of program PWSCF are:
     Max number of different atomic species (ntypx) = 10
     Max number of k-points (npk) =  40000
     Max angular momentum in pseudopotentials (lmaxx) =  3
     Message from routine read_pp_mesh:
     mesh size missing, using the one in header

     Subspace diagonalization in iterative solution of the eigenvalue problem:
     a serial algorithm will be used

     bravais-lattice index     =            4
     lattice parameter (alat)  =       5.2000  a.u.
     unit-cell volume          =     948.4017 (a.u.)^3
     number of atoms/cell      =            2
     number of atomic types    =            1
     number of electrons       =         8.00
     number of Kohn-Sham states=            8
     kinetic-energy cutoff     =      50.0000  Ry
     charge density cutoff     =     200.0000  Ry
     scf convergence threshold =      1.0E-08
     mixing beta               =       0.7000
     number of iterations used =            8  plain     mixing
     energy convergence thresh.=      1.0E-04
     force convergence thresh. =      1.0E-08
     press convergence thresh. =      1.0E-03
     Exchange-correlation= PBE
                           (   1   4   3   4   0   0   0)
     nstep                     =           50

     celldm(1)=   5.200000  celldm(2)=   0.000000  celldm(3)=   7.788462
     celldm(4)=   0.000000  celldm(5)=   0.000000  celldm(6)=   0.000000

     crystal axes: (cart. coord. in units of alat)
               a(1) = (   1.000000   0.000000   0.000000 )
               a(2) = (  -0.500000   0.866025   0.000000 )
               a(3) = (   0.000000   0.000000   7.788462 )

     reciprocal axes: (cart. coord. in units 2 pi/alat)
               b(1) = (  1.000000  0.577350  0.000000 )
               b(2) = (  0.000000  1.154701  0.000000 )
               b(3) = (  0.000000  0.000000  0.128395 )

     PseudoPot. # 1 for C  read from file:
     /home/yhkim/qe-6.7/pseudo/ONCV1/1.2/C_ONCV_PBE-1.2.upf
     MD5 check sum: 1a5f83a7b1f58d24996abe00ed223ac6
     Pseudo is Norm-conserving, Zval =  4.0
     Generated using ONCVPSP code by D. R. Hamann
     Using radial grid of  602 points,  4 beta functions with:
                l(1) =   0
                l(2) =   0
                l(3) =   1
                l(4) =   1

     atomic species   valence    mass     pseudopotential
        C              4.00    12.01070     C ( 1.00)

     24 Sym. Ops., with inversion, found

   Cartesian axes

     site n.     atom                  positions (alat units)
         1           C   tau(   1) = (  -0.0000000   0.5773503   3.8942308  )
         2           C   tau(   2) = (   0.5000000   0.2886751   3.8942308  )

     number of k points=    27  Methfessel-Paxton smearing, width (Ry)=  0.0100
                       cart. coord. in units 2pi/alat
        k(    1) = (   0.0000000   0.0000000   0.0000000), wk =   0.0088889
        k(    2) = (   0.0000000   0.0769800   0.0000000), wk =   0.0533333
        k(    3) = (   0.0000000   0.1539601   0.0000000), wk =   0.0533333
        k(    4) = (   0.0000000   0.2309401   0.0000000), wk =   0.0533333
        k(    5) = (   0.0000000   0.3079201   0.0000000), wk =   0.0533333
        k(    6) = (   0.0000000   0.3849002   0.0000000), wk =   0.0533333
        k(    7) = (   0.0000000   0.4618802   0.0000000), wk =   0.0533333
        k(    8) = (   0.0000000   0.5388603   0.0000000), wk =   0.0533333
        k(    9) = (   0.0666667   0.1154701   0.0000000), wk =   0.0533333
        k(   10) = (   0.0666667   0.1924501   0.0000000), wk =   0.1066667
        k(   11) = (   0.0666667   0.2694301   0.0000000), wk =   0.1066667
        k(   12) = (   0.0666667   0.3464102   0.0000000), wk =   0.1066667
        k(   13) = (   0.0666667   0.4233902   0.0000000), wk =   0.1066667
        k(   14) = (   0.0666667   0.5003702   0.0000000), wk =   0.1066667
        k(   15) = (   0.0666667   0.5773503   0.0000000), wk =   0.0533333
        k(   16) = (   0.1333333   0.2309401   0.0000000), wk =   0.0533333
        k(   17) = (   0.1333333   0.3079201   0.0000000), wk =   0.1066667
        k(   18) = (   0.1333333   0.3849002   0.0000000), wk =   0.1066667
        k(   19) = (   0.1333333   0.4618802   0.0000000), wk =   0.1066667
        k(   20) = (   0.1333333   0.5388603   0.0000000), wk =   0.1066667
        k(   21) = (   0.2000000   0.3464102   0.0000000), wk =   0.0533333
        k(   22) = (   0.2000000   0.4233902   0.0000000), wk =   0.1066667
        k(   23) = (   0.2000000   0.5003702   0.0000000), wk =   0.1066667
        k(   24) = (   0.2000000   0.5773503   0.0000000), wk =   0.0533333
        k(   25) = (   0.2666667   0.4618802   0.0000000), wk =   0.0533333
        k(   26) = (   0.2666667   0.5388603   0.0000000), wk =   0.1066667
        k(   27) = (   0.3333333   0.5773503   0.0000000), wk =   0.0177778

     Initial potential from superposition of free atoms

     starting charge    7.98607, renormalised to    8.00000

     negative rho (up, down):  1.305E-04 0.000E+00
     Starting wfcs are random

     Self-consistent Calculation

     iteration #  1     ecut=    50.00 Ry     beta= 0.70
     Davidson diagonalization with overlap
     ethr =  1.00E-02,  avg # of iterations = 12.0

     Threshold (ethr) on eigenvalues was too large:
     Diagonalizing with lowered threshold

     Davidson diagonalization with overlap
     ethr =  7.02E-04,  avg # of iterations =  3.4

     negative rho (up, down):  1.917E-05 0.000E+00

     total energy              =     -22.67983643 Ry
     estimated scf accuracy    <       0.06341951 Ry

[...]

     iteration #  3     ecut=    50.00 Ry     beta= 0.70
     Davidson diagonalization with overlap
     c_bands:  1 eigenvalues not converged
     c_bands:  1 eigenvalues not converged
     c_bands:  1 eigenvalues not converged
     ethr =  2.12E-05,  avg # of iterations =  9.4

[...]

     End of self-consistent calculation

          k = 0.0000 0.0000 0.0000 (  5629 PWs)   bands (ev):

   -22.1190 -10.7000  -8.0925  -8.0925  -0.9078  -0.1948   0.6144   0.9633

[...]

     the Fermi energy is    -5.0525 ev

!    total energy              =     -22.68936097 Ry
     estimated scf accuracy    <          1.4E-09 Ry
     smearing contrib. (-TS)   =      -0.00005015 Ry
     internal energy E=F+TS    =     -22.68931082 Ry

     The total energy is F=E-TS. E is the sum of the following terms:
     one-electron contribution =    -310.01132348 Ry
     hartree contribution      =     155.45105447 Ry
     xc contribution           =      -6.57686219 Ry
     ewald contribution        =     138.44782037 Ry

     convergence has been achieved in   6 iterations

     Forces acting on atoms (cartesian axes, Ry/au):

     atom    1 type  1   force =     0.00000000    0.00000000    0.00000000
     atom    2 type  1   force =     0.00000000    0.00000000    0.00000000

     Total force =     0.000000     Total SCF correction =     0.000000

     Computing stress (Cartesian axis) and pressure

          total   stress  (Ry/bohr**3)                   (kbar)     P=      -97.36
  -0.00095386  -0.00000000   0.00000000         -140.32       -0.00        0.00
  -0.00000000  -0.00095386  -0.00000000           -0.00     -140.32       -0.00
   0.00000000   0.00000000  -0.00007788            0.00        0.00      -11.46

     BFGS Geometry Optimization
     Energy error            =      0.0E+00
     Gradient error          =      0.0E+00
     Cell gradient error     =      9.5E-04

     number of scf cycles    =   1
     number of bfgs steps    =   0

     enthalpy new            =     -22.6893609683 Ry

     new trust radius        =       0.1468761364 bohr
     new conv_thr            =       0.0000000100 Ry

     new unit-cell volume =    903.70889 a.u.^3 (   133.91584 Ang^3 )
     density =      0.29786 g/cm^3

CELL_PARAMETERS (alat=  5.20000000)
   0.976153476  -0.000000000   0.000000000
  -0.488076738   0.845373708   0.000000000
   0.000000000   0.000000000   7.788461538

ATOMIC_POSITIONS (crystal)
C             0.3333333333        0.6666666667        0.5000000000
C             0.6666666667        0.3333333333        0.5000000000

     Writing output data file ./work/LiC520.save/
     NEW-OLD atomic charge density approx. for the potential

     negative rho (up, down):  9.344E-06 0.000E+00
     extrapolated charge    7.60505, renormalised to    8.00000

[...]

     Energy error            =      4.0E-02
     Gradient error          =      0.0E+00
     Cell gradient error     =      8.3E-04

[...]

     enthalpy old            =     -22.6893609683 Ry
     enthalpy new            =     -22.7294842951 Ry

     CASE: enthalpy_new < enthalpy_old

     WARNING: bfgs curvature condition failed, Theta= 0.937
     new trust radius        =       0.1615637501 bohr
     new conv_thr            =            1.0E-10 Ry

[...]

          k =-0.0000 0.0867 0.0000 (  5633 PWs)   bands (ev):

[...]

     Writing output data file ./work/LiC520.save/
     NEW-OLD atomic charge density approx. for the potential

     negative rho (up, down):  4.296E-06 0.000E+00
     extrapolated charge    8.08944, renormalised to    8.00000

[...]

     Writing output data file ./work/LiC520.save/
     NEW-OLD atomic charge density approx. for the potential
     extrapolated charge    7.99402, renormalised to    8.00000

[...]

     small trust_radius: resetting bfgs history

[...]

     Energy error            =      3.1E-10
     Gradient error          =      0.0E+00
     Cell gradient error     =      6.2E-08

     number of scf cycles    =   8
     number of bfgs steps    =   7

     enthalpy old            =     -22.8013890288 Ry
     enthalpy new            =     -22.8013890291 Ry

     CASE: enthalpy_new < enthalpy_old

     Message from routine bfgs:
     history already reset at previous step: stopping
     small trust_radius: resetting bfgs history

     new trust radius        =       0.0000085177 bohr
     new conv_thr            =            1.0E-10 Ry

     new unit-cell volume =    756.39376 a.u.^3 (   112.08599 Ang^3 )
     density =      0.35587 g/cm^3

[...]

ATOMIC_POSITIONS (crystal)
C             0.3333333333        0.6666666667        0.5000000000
C             0.6666666667        0.3333333333        0.5000000000

     Writing output data file ./work/LiC520.save/
     NEW-OLD atomic charge density approx. for the potential
     extrapolated charge    7.99998, renormalised to    8.00000

[...]

     Threshold (ethr) on eigenvalues was too large:
     Diagonalizing with lowered threshold

     Davidson diagonalization with overlap
     ethr =  2.79E-12,  avg # of iterations =  1.8

[...]

     Message from routine bfgs:
     history already reset at previous step: stopping
     Energy error            =      7.5E-11
     Gradient error          =      1.9E-26
     Cell gradient error     =      4.1E-08

     bfgs converged in   9 scf cycles and   8 bfgs steps
     (criteria: energy <  1.0E-04 Ry, force <  1.0E-08Ry/Bohr, cell <  1.0E-03kbar)

     End of BFGS Geometry Optimization

     Final enthalpy =     -22.8013890292 Ry

     File ./work/LiC520.bfgs deleted, as requested
Begin final coordinates
     new unit-cell volume =    756.39376 a.u.^3 (   112.08599 Ang^3 )
     density =      0.35587 g/cm^3

CELL_PARAMETERS (alat=  5.20000000)
   0.893054161   0.000000000   0.000000000
  -0.446527080   0.773407590   0.000000000
   0.000000000   0.000000000   7.788461538

ATOMIC_POSITIONS (crystal)
C             0.3333333333        0.6666666667        0.5000000000
C             0.6666666667        0.3333333333        0.5000000000
End final coordinates

     Writing output data file ./work/LiC520.save/

     Final scf calculation at the relaxed structure.
     The G-vectors are recalculated for the final unit cell
     Results may differ from those at the preceding step.

     bravais-lattice index     =            4
     lattice parameter (alat)  =       5.2000  a.u.
     unit-cell volume          =     756.3938 (a.u.)^3
     number of atoms/cell      =            2
     number of atomic types    =            1
     number of electrons       =         8.00
     number of Kohn-Sham states=            8
     kinetic-energy cutoff     =      50.0000  Ry
     charge density cutoff     =     200.0000  Ry
     scf convergence threshold =      1.0E-10
     mixing beta               =       0.7000
     number of iterations used =            8  plain     mixing
     press convergence thresh. =      1.0E-03
     Exchange-correlation= PBE
                           (   1   4   3   4   0   0   0)

     celldm(1)=   5.200000  celldm(2)=   0.000000  celldm(3)=   7.788462
     celldm(4)=   0.000000  celldm(5)=   0.000000  celldm(6)=   0.000000

     crystal axes: (cart. coord. in units of alat)
               a(1) = (   0.893054   0.000000   0.000000 )
               a(2) = (  -0.446527   0.773408   0.000000 )
               a(3) = (   0.000000   0.000000   7.788462 )

     reciprocal axes: (cart. coord. in units 2 pi/alat)
               b(1) = (  1.119753  0.646490  0.000000 )
               b(2) = ( -0.000000  1.292979  0.000000 )
               b(3) = (  0.000000  0.000000  0.128395 )

     PseudoPot. # 1 for C  read from file:
     /home/yhkim/qe-6.7/pseudo/ONCV1/1.2/C_ONCV_PBE-1.2.upf
     MD5 check sum: 1a5f83a7b1f58d24996abe00ed223ac6
     Pseudo is Norm-conserving, Zval =  4.0
     Generated using ONCVPSP code by D. R. Hamann
     Using radial grid of  602 points,  4 beta functions with:
                l(1) =   0
                l(2) =   0
                l(3) =   1
                l(4) =   1

     atomic species   valence    mass     pseudopotential
        C              4.00    12.01070     C ( 1.00)

     24 Sym. Ops., with inversion, found

   Cartesian axes

     site n.     atom                  positions (alat units)
         1           C   tau(   1) = (  -0.0000000   0.5156051   3.8942308  )
         2           C   tau(   2) = (   0.4465271   0.2578025   3.8942308  )

     number of k points=    27  Methfessel-Paxton smearing, width (Ry)=  0.0100
                       cart. coord. in units 2pi/alat
        k(    1) = (   0.0000000   0.0000000   0.0000000), wk =   0.0088889
        k(    2) = (  -0.0000000   0.0861986   0.0000000), wk =   0.0533333
        k(    3) = (  -0.0000000   0.1723972   0.0000000), wk =   0.0533333
        k(    4) = (  -0.0000000   0.2585959   0.0000000), wk =   0.0533333
        k(    5) = (  -0.0000000   0.3447945   0.0000000), wk =   0.0533333
        k(    6) = (  -0.0000000   0.4309931   0.0000000), wk =   0.0533333
        k(    7) = (  -0.0000000   0.5171917   0.0000000), wk =   0.0533333
        k(    8) = (  -0.0000000   0.6033903   0.0000000), wk =   0.0533333
        k(    9) = (   0.0746502   0.1292979   0.0000000), wk =   0.0533333
        k(   10) = (   0.0746502   0.2154965   0.0000000), wk =   0.1066667
        k(   11) = (   0.0746502   0.3016952   0.0000000), wk =   0.1066667
        k(   12) = (   0.0746502   0.3878938   0.0000000), wk =   0.1066667
        k(   13) = (   0.0746502   0.4740924   0.0000000), wk =   0.1066667
        k(   14) = (   0.0746502   0.5602910   0.0000000), wk =   0.1066667
        k(   15) = (   0.0746502   0.6464896   0.0000000), wk =   0.0533333
        k(   16) = (   0.1493004   0.2585959   0.0000000), wk =   0.0533333
        k(   17) = (   0.1493004   0.3447945   0.0000000), wk =   0.1066667
        k(   18) = (   0.1493004   0.4309931   0.0000000), wk =   0.1066667
        k(   19) = (   0.1493004   0.5171917   0.0000000), wk =   0.1066667
        k(   20) = (   0.1493004   0.6033903   0.0000000), wk =   0.1066667
        k(   21) = (   0.2239506   0.3878938   0.0000000), wk =   0.0533333
        k(   22) = (   0.2239506   0.4740924   0.0000000), wk =   0.1066667
        k(   23) = (   0.2239506   0.5602910   0.0000000), wk =   0.1066667
        k(   24) = (   0.2239506   0.6464896   0.0000000), wk =   0.0533333
        k(   25) = (   0.2986008   0.5171917   0.0000000), wk =   0.0533333
        k(   26) = (   0.2986008   0.6033903   0.0000000), wk =   0.1066667
        k(   27) = (   0.3732510   0.6464896   0.0000000), wk =   0.0177778

     Initial potential from superposition of free atoms

     starting charge    7.98607, renormalised to    8.00000

     negative rho (up, down):  1.157E-04 0.000E+00
     Starting wfcs are random

     Self-consistent Calculation

     iteration #  1     ecut=    50.00 Ry     beta= 0.70
     Davidson diagonalization with overlap
     c_bands:  2 eigenvalues not converged
     c_bands:  2 eigenvalues not converged
     c_bands:  5 eigenvalues not converged
     c_bands:  5 eigenvalues not converged
     c_bands:  4 eigenvalues not converged
     c_bands:  4 eigenvalues not converged
     c_bands:  2 eigenvalues not converged
     c_bands:  2 eigenvalues not converged
     c_bands:  2 eigenvalues not converged
     c_bands:  5 eigenvalues not converged
     c_bands:  4 eigenvalues not converged
     c_bands:  4 eigenvalues not converged
     c_bands:  4 eigenvalues not converged
     c_bands:  2 eigenvalues not converged
     c_bands:  2 eigenvalues not converged
     c_bands:  5 eigenvalues not converged
     c_bands:  4 eigenvalues not converged
     c_bands:  4 eigenvalues not converged
     c_bands:  3 eigenvalues not converged
     c_bands:  3 eigenvalues not converged
     c_bands:  4 eigenvalues not converged
     c_bands:  3 eigenvalues not converged
     c_bands:  3 eigenvalues not converged
     c_bands:  3 eigenvalues not converged
     c_bands:  4 eigenvalues not converged
     c_bands:  3 eigenvalues not converged
     c_bands:  3 eigenvalues not converged
     ethr =  1.00E-06,  avg # of iterations = 22.2

[...]

     negative rho (up, down):  2.993E-06 0.000E+00

[...]

     total energy              =     -22.79089200 Ry
     estimated scf accuracy    <          1.1E-09 Ry

     iteration #  7     ecut=    50.00 Ry     beta= 0.70
     Davidson diagonalization with overlap
     ethr =  1.38E-11,  avg # of iterations =  2.9

     End of self-consistent calculation

[...]

          k =-0.0000 0.6034 0.0000 (  4547 PWs)   bands (ev):

[...]

          k = 0.3733 0.6465 0.0000 (  4485 PWs)   bands (ev):

   -16.8765 -16.8765 -14.8858  -4.2127  -4.2127   6.4257   8.7399   8.7399

     the Fermi energy is    -4.2127 ev

!    total energy              =     -22.79089200 Ry
     estimated scf accuracy    <          1.2E-11 Ry
     smearing contrib. (-TS)   =      -0.00005015 Ry
     internal energy E=F+TS    =     -22.79084185 Ry

     The total energy is F=E-TS. E is the sum of the following terms:
     one-electron contribution =    -389.46689593 Ry
     hartree contribution      =     195.35882891 Ry
     xc contribution           =      -7.02461172 Ry
     ewald contribution        =     178.34183689 Ry

     convergence has been achieved in   7 iterations

     Forces acting on atoms (cartesian axes, Ry/au):

     atom    1 type  1   force =     0.00000000    0.00000000    0.00000000
     atom    2 type  1   force =     0.00000000    0.00000000    0.00000000

     Total force =     0.000000     Total SCF correction =     0.000000

     Computing stress (Cartesian axis) and pressure

          total   stress  (Ry/bohr**3)                   (kbar)     P=      -11.33
  -0.00006126   0.00000000  -0.00000000           -9.01        0.00       -0.00
   0.00000000  -0.00006126  -0.00000000            0.00       -9.01       -0.00
   0.00000000   0.00000000  -0.00010846            0.00        0.00      -15.96

     Writing output data file ./work/LiC520.save/

     General routines

     Parallel routines

   This run was terminated on:  15:47:32  19Jan2024

   JOB DONE.