     Program PWSCF v.6.7MaX starts on 19Jan2024 at 13:53:41

     R & G space division:  proc/nbgrp/npool/nimage =      32
     Waiting for input...
     Reading input from standard input

     Current dimensions of program PWSCF are:
     Max number of different atomic species (ntypx) = 10
     Max number of k-points (npk) =  40000
     Max angular momentum in pseudopotentials (lmaxx) =  3
     Message from routine read_pp_mesh:
     mesh size missing, using the one in header

     Subspace diagonalization in iterative solution of the eigenvalue problem:
     a serial algorithm will be used

     bravais-lattice index     =            4
     lattice parameter (alat)  =       4.0500  a.u.
     unit-cell volume          =     575.3018 (a.u.)^3
     number of atoms/cell      =            2
     number of atomic types    =            1
     number of electrons       =         8.00
     number of Kohn-Sham states=            8
     kinetic-energy cutoff     =      50.0000  Ry
     charge density cutoff     =     200.0000  Ry
     scf convergence threshold =      1.0E-08
     mixing beta               =       0.7000
     number of iterations used =            8  plain     mixing
     energy convergence thresh.=      1.0E-04
     force convergence thresh. =      1.0E-08
     press convergence thresh. =      1.0E-03
     Exchange-correlation= PBE
                           (   1   4   3   4   0   0   0)
     nstep                     =           50

     celldm(1)=   4.050000  celldm(2)=   0.000000  celldm(3)=  10.000000
     celldm(4)=   0.000000  celldm(5)=   0.000000  celldm(6)=   0.000000

     crystal axes: (cart. coord. in units of alat)
               a(1) = (   1.000000   0.000000   0.000000 )
               a(2) = (  -0.500000   0.866025   0.000000 )
               a(3) = (   0.000000   0.000000  10.000000 )

     reciprocal axes: (cart. coord. in units 2 pi/alat)
               b(1) = (  1.000000  0.577350  0.000000 )
               b(2) = (  0.000000  1.154701  0.000000 )
               b(3) = (  0.000000  0.000000  0.100000 )

     PseudoPot. # 1 for C  read from file:
     /home/yhkim/qe-6.7/pseudo/ONCV1/1.2/C_ONCV_PBE-1.2.upf
     MD5 check sum: 1a5f83a7b1f58d24996abe00ed223ac6
     Pseudo is Norm-conserving, Zval =  4.0
     Generated using ONCVPSP code by D. R. Hamann
     Using radial grid of  602 points,  4 beta functions with:
                l(1) =   0
                l(2) =   0
                l(3) =   1
                l(4) =   1

     atomic species   valence    mass     pseudopotential
        C              4.00    12.01070     C ( 1.00)

     24 Sym. Ops., with inversion, found

   Cartesian axes

     site n.     atom                  positions (alat units)
         1           C   tau(   1) = (  -0.0000000   0.5773503   5.0000000  )
         2           C   tau(   2) = (   0.5000000   0.2886751   5.0000000  )

     number of k points=    27  Methfessel-Paxton smearing, width (Ry)=  0.0100
                       cart. coord. in units 2pi/alat
        k(    1) = (   0.0000000   0.0000000   0.0000000), wk =   0.0088889
        k(    2) = (   0.0000000   0.0769800   0.0000000), wk =   0.0533333
        k(    3) = (   0.0000000   0.1539601   0.0000000), wk =   0.0533333
        k(    4) = (   0.0000000   0.2309401   0.0000000), wk =   0.0533333
        k(    5) = (   0.0000000   0.3079201   0.0000000), wk =   0.0533333
        k(    6) = (   0.0000000   0.3849002   0.0000000), wk =   0.0533333
        k(    7) = (   0.0000000   0.4618802   0.0000000), wk =   0.0533333
        k(    8) = (   0.0000000   0.5388603   0.0000000), wk =   0.0533333
        k(    9) = (   0.0666667   0.1154701   0.0000000), wk =   0.0533333
        k(   10) = (   0.0666667   0.1924501   0.0000000), wk =   0.1066667
        k(   11) = (   0.0666667   0.2694301   0.0000000), wk =   0.1066667
        k(   12) = (   0.0666667   0.3464102   0.0000000), wk =   0.1066667
        k(   13) = (   0.0666667   0.4233902   0.0000000), wk =   0.1066667
        k(   14) = (   0.0666667   0.5003702   0.0000000), wk =   0.1066667
        k(   15) = (   0.0666667   0.5773503   0.0000000), wk =   0.0533333
        k(   16) = (   0.1333333   0.2309401   0.0000000), wk =   0.0533333
        k(   17) = (   0.1333333   0.3079201   0.0000000), wk =   0.1066667
        k(   18) = (   0.1333333   0.3849002   0.0000000), wk =   0.1066667
        k(   19) = (   0.1333333   0.4618802   0.0000000), wk =   0.1066667
        k(   20) = (   0.1333333   0.5388603   0.0000000), wk =   0.1066667
        k(   21) = (   0.2000000   0.3464102   0.0000000), wk =   0.0533333
        k(   22) = (   0.2000000   0.4233902   0.0000000), wk =   0.1066667
        k(   23) = (   0.2000000   0.5003702   0.0000000), wk =   0.1066667
        k(   24) = (   0.2000000   0.5773503   0.0000000), wk =   0.0533333
        k(   25) = (   0.2666667   0.4618802   0.0000000), wk =   0.0533333
        k(   26) = (   0.2666667   0.5388603   0.0000000), wk =   0.1066667
        k(   27) = (   0.3333333   0.5773503   0.0000000), wk =   0.0177778

     Initial potential from superposition of free atoms

     starting charge    7.98607, renormalised to    8.00000

     negative rho (up, down):  9.878E-05 0.000E+00
     Starting wfcs are random

     Self-consistent Calculation

     iteration #  1     ecut=    50.00 Ry     beta= 0.70
     Davidson diagonalization with overlap
     ethr =  1.00E-02,  avg # of iterations = 12.3

     negative rho (up, down):  4.908E-07 0.000E+00

     total energy              =     -22.47112535 Ry
     estimated scf accuracy    <       0.49428742 Ry

[...]

     End of self-consistent calculation

          k = 0.0000 0.0000 0.0000 (  3445 PWs)   bands (ev):

   -25.9226 -13.6915  -5.4340  -5.4340  -1.0461  -0.2139   0.5502   0.9045

[...]

     the Fermi energy is    -2.7790 ev

!    total energy              =     -22.54867184 Ry
     estimated scf accuracy    <          6.9E-10 Ry
     smearing contrib. (-TS)   =      -0.00005015 Ry
     internal energy E=F+TS    =     -22.54862169 Ry

     The total energy is F=E-TS. E is the sum of the following terms:
     one-electron contribution =    -514.02780261 Ry
     hartree contribution      =     258.00183234 Ry
     xc contribution           =      -7.67105574 Ry
     ewald contribution        =     241.14840432 Ry

     convergence has been achieved in   7 iterations

     Forces acting on atoms (cartesian axes, Ry/au):

     atom    1 type  1   force =     0.00000000    0.00000000    0.00000000
     atom    2 type  1   force =     0.00000000    0.00000000    0.00000000

     Total force =     0.000000     Total SCF correction =     0.000000

     Computing stress (Cartesian axis) and pressure

          total   stress  (Ry/bohr**3)                   (kbar)     P=      294.05
   0.00307617  -0.00000000   0.00000000          452.52       -0.00        0.00
  -0.00000000   0.00307617  -0.00000000           -0.00      452.52       -0.00
   0.00000000   0.00000000  -0.00015562            0.00        0.00      -22.89

     BFGS Geometry Optimization
     Energy error            =      0.0E+00
     Gradient error          =      0.0E+00
     Cell gradient error     =      3.1E-03

     number of scf cycles    =   1
     number of bfgs steps    =   0

     enthalpy new            =     -22.5486718354 Ry

     new trust radius        =       0.3689163393 bohr
     new conv_thr            =       0.0000000100 Ry

     new unit-cell volume =    667.19048 a.u.^3 (    98.86743 Ang^3 )
     density =      0.40345 g/cm^3

CELL_PARAMETERS (alat=  4.05000000)
   1.076904198  -0.000000000   0.000000000
  -0.538452099   0.932626393   0.000000000
   0.000000000   0.000000000  10.000000000

ATOMIC_POSITIONS (crystal)
C             0.3333333333        0.6666666667        0.5000000000
C             0.6666666667        0.3333333333        0.5000000000

     Writing output data file ./work/LiC405.save/
     NEW-OLD atomic charge density approx. for the potential

     negative rho (up, down):  1.712E-04 0.000E+00
     extrapolated charge    9.09988, renormalised to    8.00000

[...]

     iteration #  1     ecut=    50.00 Ry     beta= 0.70
     Davidson diagonalization with overlap
     c_bands:  5 eigenvalues not converged
     c_bands:  4 eigenvalues not converged
     c_bands:  2 eigenvalues not converged
     c_bands:  4 eigenvalues not converged
     c_bands:  4 eigenvalues not converged
     c_bands:  5 eigenvalues not converged
     c_bands:  5 eigenvalues not converged
     c_bands:  2 eigenvalues not converged
     c_bands:  5 eigenvalues not converged
     c_bands:  5 eigenvalues not converged
     c_bands:  4 eigenvalues not converged
     c_bands:  5 eigenvalues not converged
     c_bands:  5 eigenvalues not converged
     c_bands:  5 eigenvalues not converged
     c_bands:  1 eigenvalues not converged
     c_bands:  4 eigenvalues not converged
     c_bands:  5 eigenvalues not converged
     c_bands:  5 eigenvalues not converged
     c_bands:  5 eigenvalues not converged
     c_bands:  5 eigenvalues not converged
     c_bands:  5 eigenvalues not converged
     c_bands:  5 eigenvalues not converged
     c_bands:  1 eigenvalues not converged
     c_bands:  4 eigenvalues not converged
     c_bands:  2 eigenvalues not converged
     ethr =  1.00E-06,  avg # of iterations = 25.0

[...]

     Energy error            =      1.7E-01
     Gradient error          =      1.6E-26
     Cell gradient error     =      8.9E-04

[...]

     enthalpy old            =     -22.5486718354 Ry
     enthalpy new            =     -22.7199918884 Ry

     CASE: enthalpy_new < enthalpy_old

[...]

     negative rho (up, down):  1.828E-06 0.000E+00
     extrapolated charge    8.03114, renormalised to    8.00000

[...]

     Writing output data file ./work/LiC405.save/
     NEW-OLD atomic charge density approx. for the potential
     extrapolated charge    8.00159, renormalised to    8.00000

[...]

     Threshold (ethr) on eigenvalues was too large:
     Diagonalizing with lowered threshold

     Davidson diagonalization with overlap
     ethr =  9.20E-09,  avg # of iterations =  1.0

[...]

     CASE: enthalpy_new < enthalpy_old

     small trust_radius: resetting bfgs history

     new trust radius        =       0.0000011520 bohr
     new conv_thr            =            1.0E-10 Ry

[...]

     Writing output data file ./work/LiC405.save/
     NEW-OLD atomic charge density approx. for the potential
     extrapolated charge    8.00000, renormalised to    8.00000

[...]

     number of scf cycles    =   7
     number of bfgs steps    =   6

     enthalpy old            =     -22.7463957817 Ry
     enthalpy new            =     -22.7463957816 Ry

     CASE: enthalpy_new > enthalpy_old

     new trust radius        =       0.0000000619 bohr

     trust_radius < trust_radius_min

     resetting bfgs history

     Message from routine bfgs:
     history already reset at previous step: stopping
     new conv_thr            =            1.0E-10 Ry

     new unit-cell volume =    731.47135 a.u.^3 (   108.39287 Ang^3 )
     density =      0.36800 g/cm^3

[...]

ATOMIC_POSITIONS (crystal)
C             0.3333333333        0.6666666667        0.5000000000
C             0.6666666667        0.3333333333        0.5000000000

     Writing output data file ./work/LiC405.save/
     NEW-OLD atomic charge density approx. for the potential

[...]

     Threshold (ethr) on eigenvalues was too large:
     Diagonalizing with lowered threshold

     Davidson diagonalization with overlap
     ethr =  1.01E-13,  avg # of iterations =  1.7

[...]

     Energy error            =      3.1E-11
     Gradient error          =      1.5E-26
     Cell gradient error     =      3.7E-09

     bfgs converged in   8 scf cycles and   6 bfgs steps
     (criteria: energy <  1.0E-04 Ry, force <  1.0E-08Ry/Bohr, cell <  1.0E-03kbar)

     End of BFGS Geometry Optimization

     Final enthalpy =     -22.7463957816 Ry

     File ./work/LiC405.bfgs deleted, as requested
Begin final coordinates
     new unit-cell volume =    731.47135 a.u.^3 (   108.39287 Ang^3 )
     density =      0.36800 g/cm^3

CELL_PARAMETERS (alat=  4.05000000)
   1.127588946  -0.000000000   0.000000000
  -0.563794473   0.976520672   0.000000000
   0.000000000   0.000000000  10.000000000

ATOMIC_POSITIONS (crystal)
C             0.3333333333        0.6666666667        0.5000000000
C             0.6666666667        0.3333333333        0.5000000000
End final coordinates

     Writing output data file ./work/LiC405.save/

     Final scf calculation at the relaxed structure.
     The G-vectors are recalculated for the final unit cell
     Results may differ from those at the preceding step.

     bravais-lattice index     =            4
     lattice parameter (alat)  =       4.0500  a.u.
     unit-cell volume          =     731.4714 (a.u.)^3
     number of atoms/cell      =            2
     number of atomic types    =            1
     number of electrons       =         8.00
     number of Kohn-Sham states=            8
     kinetic-energy cutoff     =      50.0000  Ry
     charge density cutoff     =     200.0000  Ry
     scf convergence threshold =      1.0E-10
     mixing beta               =       0.7000
     number of iterations used =            8  plain     mixing
     press convergence thresh. =      1.0E-03
     Exchange-correlation= PBE
                           (   1   4   3   4   0   0   0)

     celldm(1)=   4.050000  celldm(2)=   0.000000  celldm(3)=  10.000000
     celldm(4)=   0.000000  celldm(5)=   0.000000  celldm(6)=   0.000000

     crystal axes: (cart. coord. in units of alat)
               a(1) = (   1.127589  -0.000000   0.000000 )
               a(2) = (  -0.563794   0.976521   0.000000 )
               a(3) = (   0.000000   0.000000  10.000000 )

     reciprocal axes: (cart. coord. in units 2 pi/alat)
               b(1) = (  0.886848  0.512022  0.000000 )
               b(2) = (  0.000000  1.024044  0.000000 )
               b(3) = (  0.000000  0.000000  0.100000 )

     PseudoPot. # 1 for C  read from file:
     /home/yhkim/qe-6.7/pseudo/ONCV1/1.2/C_ONCV_PBE-1.2.upf
     MD5 check sum: 1a5f83a7b1f58d24996abe00ed223ac6
     Pseudo is Norm-conserving, Zval =  4.0
     Generated using ONCVPSP code by D. R. Hamann
     Using radial grid of  602 points,  4 beta functions with:
                l(1) =   0
                l(2) =   0
                l(3) =   1
                l(4) =   1

     atomic species   valence    mass     pseudopotential
        C              4.00    12.01070     C ( 1.00)

     24 Sym. Ops., with inversion, found

   Cartesian axes

     site n.     atom                  positions (alat units)
         1           C   tau(   1) = (  -0.0000000   0.6510138   5.0000000  )
         2           C   tau(   2) = (   0.5637945   0.3255069   5.0000000  )

     number of k points=    27  Methfessel-Paxton smearing, width (Ry)=  0.0100
                       cart. coord. in units 2pi/alat
        k(    1) = (   0.0000000   0.0000000   0.0000000), wk =   0.0088889
        k(    2) = (   0.0000000   0.0682696   0.0000000), wk =   0.0533333
        k(    3) = (   0.0000000   0.1365392   0.0000000), wk =   0.0533333
        k(    4) = (   0.0000000   0.2048088   0.0000000), wk =   0.0533333
        k(    5) = (   0.0000000   0.2730784   0.0000000), wk =   0.0533333
        k(    6) = (   0.0000000   0.3413480   0.0000000), wk =   0.0533333
        k(    7) = (   0.0000000   0.4096175   0.0000000), wk =   0.0533333
        k(    8) = (   0.0000000   0.4778871   0.0000000), wk =   0.0533333
        k(    9) = (   0.0591232   0.1024044   0.0000000), wk =   0.0533333
        k(   10) = (   0.0591232   0.1706740   0.0000000), wk =   0.1066667
        k(   11) = (   0.0591232   0.2389436   0.0000000), wk =   0.1066667
        k(   12) = (   0.0591232   0.3072132   0.0000000), wk =   0.1066667
        k(   13) = (   0.0591232   0.3754827   0.0000000), wk =   0.1066667
        k(   14) = (   0.0591232   0.4437523   0.0000000), wk =   0.1066667
        k(   15) = (   0.0591232   0.5120219   0.0000000), wk =   0.0533333
        k(   16) = (   0.1182464   0.2048088   0.0000000), wk =   0.0533333
        k(   17) = (   0.1182464   0.2730784   0.0000000), wk =   0.1066667
        k(   18) = (   0.1182464   0.3413480   0.0000000), wk =   0.1066667
        k(   19) = (   0.1182464   0.4096175   0.0000000), wk =   0.1066667
        k(   20) = (   0.1182464   0.4778871   0.0000000), wk =   0.1066667
        k(   21) = (   0.1773696   0.3072132   0.0000000), wk =   0.0533333
        k(   22) = (   0.1773696   0.3754827   0.0000000), wk =   0.1066667
        k(   23) = (   0.1773696   0.4437523   0.0000000), wk =   0.1066667
        k(   24) = (   0.1773696   0.5120219   0.0000000), wk =   0.0533333
        k(   25) = (   0.2364928   0.4096175   0.0000000), wk =   0.0533333
        k(   26) = (   0.2364928   0.4778871   0.0000000), wk =   0.1066667
        k(   27) = (   0.2956160   0.5120219   0.0000000), wk =   0.0177778

     Initial potential from superposition of free atoms

     starting charge    7.98607, renormalised to    8.00000

     negative rho (up, down):  1.111E-04 0.000E+00
     Starting wfcs are random

     Self-consistent Calculation

[...]

     negative rho (up, down):  2.812E-06 0.000E+00

[...]

     iteration #  3     ecut=    50.00 Ry     beta= 0.70
     Davidson diagonalization with overlap
     c_bands:  1 eigenvalues not converged
     ethr =  3.03E-05,  avg # of iterations =  9.5

[...]

     total energy              =     -22.78645124 Ry
     estimated scf accuracy    <          1.2E-09 Ry

     iteration #  7     ecut=    50.00 Ry     beta= 0.70
     Davidson diagonalization with overlap
     ethr =  1.47E-11,  avg # of iterations =  3.1

     End of self-consistent calculation

[...]

          k = 0.2956 0.5120 0.0000 (  4377 PWs)   bands (ev):

   -16.8767 -16.8767 -15.1170  -4.0650  -4.0650   6.6517   9.2131   9.2131

     the Fermi energy is    -4.0650 ev

!    total energy              =     -22.78645124 Ry
     estimated scf accuracy    <          1.4E-11 Ry
     smearing contrib. (-TS)   =      -0.00005015 Ry
     internal energy E=F+TS    =     -22.78640109 Ry

     The total energy is F=E-TS. E is the sum of the following terms:
     one-electron contribution =    -402.89759940 Ry
     hartree contribution      =     202.10935159 Ry
     xc contribution           =      -7.09769957 Ry
     ewald contribution        =     185.09954629 Ry

     convergence has been achieved in   7 iterations

     Forces acting on atoms (cartesian axes, Ry/au):

     atom    1 type  1   force =     0.00000000    0.00000000    0.00000000
     atom    2 type  1   force =     0.00000000    0.00000000    0.00000000

     Total force =     0.000000     Total SCF correction =     0.000000

     Computing stress (Cartesian axis) and pressure

          total   stress  (Ry/bohr**3)                   (kbar)     P=       11.24
   0.00017143   0.00000000   0.00000000           25.22        0.00        0.00
   0.00000000   0.00017143   0.00000000            0.00       25.22        0.00
   0.00000000   0.00000000  -0.00011355            0.00        0.00      -16.70

     Writing output data file ./work/LiC405.save/

     General routines

     Parallel routines

   This run was terminated on:  13:54: 5  19Jan2024

   JOB DONE.