     Program PWSCF v.6.7MaX starts on 19Jan2024 at 14:13:55

     R & G space division:  proc/nbgrp/npool/nimage =      32
     Waiting for input...
     Reading input from standard input

     Current dimensions of program PWSCF are:
     Max number of different atomic species (ntypx) = 10
     Max number of k-points (npk) =  40000
     Max angular momentum in pseudopotentials (lmaxx) =  3
     Message from routine read_pp_mesh:
     mesh size missing, using the one in header

     Subspace diagonalization in iterative solution of the eigenvalue problem:
     a serial algorithm will be used

     bravais-lattice index     =            4
     lattice parameter (alat)  =       4.6600  a.u.
     unit-cell volume          =     761.6536 (a.u.)^3
     number of atoms/cell      =            2
     number of atomic types    =            1
     number of electrons       =         8.00
     number of Kohn-Sham states=            8
     kinetic-energy cutoff     =      50.0000  Ry
     charge density cutoff     =     200.0000  Ry
     scf convergence threshold =      1.0E-08
     mixing beta               =       0.7000
     number of iterations used =            8  plain     mixing
     energy convergence thresh.=      1.0E-04
     force convergence thresh. =      1.0E-08
     press convergence thresh. =      1.0E-03
     Exchange-correlation= PBE
                           (   1   4   3   4   0   0   0)
     nstep                     =           50

     celldm(1)=   4.660000  celldm(2)=   0.000000  celldm(3)=   8.690987
     celldm(4)=   0.000000  celldm(5)=   0.000000  celldm(6)=   0.000000

     crystal axes: (cart. coord. in units of alat)
               a(1) = (   1.000000   0.000000   0.000000 )
               a(2) = (  -0.500000   0.866025   0.000000 )
               a(3) = (   0.000000   0.000000   8.690987 )

     reciprocal axes: (cart. coord. in units 2 pi/alat)
               b(1) = (  1.000000  0.577350  0.000000 )
               b(2) = (  0.000000  1.154701  0.000000 )
               b(3) = (  0.000000  0.000000  0.115062 )

     PseudoPot. # 1 for C  read from file:
     /home/yhkim/qe-6.7/pseudo/ONCV1/1.2/C_ONCV_PBE-1.2.upf
     MD5 check sum: 1a5f83a7b1f58d24996abe00ed223ac6
     Pseudo is Norm-conserving, Zval =  4.0
     Generated using ONCVPSP code by D. R. Hamann
     Using radial grid of  602 points,  4 beta functions with:
                l(1) =   0
                l(2) =   0
                l(3) =   1
                l(4) =   1

     atomic species   valence    mass     pseudopotential
        C              4.00    12.01070     C ( 1.00)

     24 Sym. Ops., with inversion, found

   Cartesian axes

     site n.     atom                  positions (alat units)
         1           C   tau(   1) = (  -0.0000000   0.5773503   4.3454936  )
         2           C   tau(   2) = (   0.5000000   0.2886751   4.3454936  )

     number of k points=    27  Methfessel-Paxton smearing, width (Ry)=  0.0100
                       cart. coord. in units 2pi/alat
        k(    1) = (   0.0000000   0.0000000   0.0000000), wk =   0.0088889
        k(    2) = (   0.0000000   0.0769800   0.0000000), wk =   0.0533333
        k(    3) = (   0.0000000   0.1539601   0.0000000), wk =   0.0533333
        k(    4) = (   0.0000000   0.2309401   0.0000000), wk =   0.0533333
        k(    5) = (   0.0000000   0.3079201   0.0000000), wk =   0.0533333
        k(    6) = (   0.0000000   0.3849002   0.0000000), wk =   0.0533333
        k(    7) = (   0.0000000   0.4618802   0.0000000), wk =   0.0533333
        k(    8) = (   0.0000000   0.5388603   0.0000000), wk =   0.0533333
        k(    9) = (   0.0666667   0.1154701   0.0000000), wk =   0.0533333
        k(   10) = (   0.0666667   0.1924501   0.0000000), wk =   0.1066667
        k(   11) = (   0.0666667   0.2694301   0.0000000), wk =   0.1066667
        k(   12) = (   0.0666667   0.3464102   0.0000000), wk =   0.1066667
        k(   13) = (   0.0666667   0.4233902   0.0000000), wk =   0.1066667
        k(   14) = (   0.0666667   0.5003702   0.0000000), wk =   0.1066667
        k(   15) = (   0.0666667   0.5773503   0.0000000), wk =   0.0533333
        k(   16) = (   0.1333333   0.2309401   0.0000000), wk =   0.0533333
        k(   17) = (   0.1333333   0.3079201   0.0000000), wk =   0.1066667
        k(   18) = (   0.1333333   0.3849002   0.0000000), wk =   0.1066667
        k(   19) = (   0.1333333   0.4618802   0.0000000), wk =   0.1066667
        k(   20) = (   0.1333333   0.5388603   0.0000000), wk =   0.1066667
        k(   21) = (   0.2000000   0.3464102   0.0000000), wk =   0.0533333
        k(   22) = (   0.2000000   0.4233902   0.0000000), wk =   0.1066667
        k(   23) = (   0.2000000   0.5003702   0.0000000), wk =   0.1066667
        k(   24) = (   0.2000000   0.5773503   0.0000000), wk =   0.0533333
        k(   25) = (   0.2666667   0.4618802   0.0000000), wk =   0.0533333
        k(   26) = (   0.2666667   0.5388603   0.0000000), wk =   0.1066667
        k(   27) = (   0.3333333   0.5773503   0.0000000), wk =   0.0177778

     Initial potential from superposition of free atoms

     starting charge    7.98607, renormalised to    8.00000

     negative rho (up, down):  1.140E-04 0.000E+00
     Starting wfcs are random

     Self-consistent Calculation

     iteration #  1     ecut=    50.00 Ry     beta= 0.70
     Davidson diagonalization with overlap
     ethr =  1.00E-02,  avg # of iterations = 11.9

     negative rho (up, down):  8.982E-08 0.000E+00

     total energy              =     -22.76108283 Ry
     estimated scf accuracy    <       0.16761780 Ry

[...]

     End of self-consistent calculation

          k = 0.0000 0.0000 0.0000 (  4507 PWs)   bands (ev):

   -23.7888 -11.8719  -7.3276  -7.3276  -0.9798  -0.2030   0.5859   0.9407

[...]

     the Fermi energy is    -4.2426 ev

!    total energy              =     -22.79101240 Ry
     estimated scf accuracy    <          2.3E-10 Ry
     smearing contrib. (-TS)   =      -0.00005015 Ry
     internal energy E=F+TS    =     -22.79096225 Ry

     The total energy is F=E-TS. E is the sum of the following terms:
     one-electron contribution =    -386.74639376 Ry
     hartree contribution      =     193.99160110 Ry
     xc contribution           =      -7.00970762 Ry
     ewald contribution        =     176.97353802 Ry

     convergence has been achieved in   6 iterations

     Forces acting on atoms (cartesian axes, Ry/au):

     atom    1 type  1   force =     0.00000000    0.00000000    0.00000000
     atom    2 type  1   force =     0.00000000    0.00000000    0.00000000

     Total force =     0.000000     Total SCF correction =     0.000000

     Computing stress (Cartesian axis) and pressure

          total   stress  (Ry/bohr**3)                   (kbar)     P=      -15.64
  -0.00010573   0.00000000   0.00000000          -15.55        0.00        0.00
   0.00000000  -0.00010573  -0.00000000            0.00      -15.55       -0.00
   0.00000000  -0.00000000  -0.00010760            0.00       -0.00      -15.83

     BFGS Geometry Optimization
     Energy error            =      0.0E+00
     Gradient error          =      0.0E+00
     Cell gradient error     =      1.1E-04

     number of scf cycles    =   1
     number of bfgs steps    =   0

     enthalpy new            =     -22.7910124042 Ry

     new trust radius        =       0.0145892595 bohr
     new conv_thr            =       0.0000000100 Ry

     new unit-cell volume =    757.63255 a.u.^3 (   112.26956 Ang^3 )
     density =      0.35529 g/cm^3

CELL_PARAMETERS (alat=  4.66000000)
   0.997356834   0.000000000   0.000000000
  -0.498678417   0.863736354   0.000000000
   0.000000000   0.000000000   8.690987124

ATOMIC_POSITIONS (crystal)
C             0.3333333333        0.6666666667        0.5000000000
C             0.6666666667        0.3333333333        0.5000000000

     Writing output data file ./work/LiC466.save/
     NEW-OLD atomic charge density approx. for the potential

     negative rho (up, down):  4.532E-07 0.000E+00
     extrapolated charge    7.95762, renormalised to    8.00000

[...]

     iteration #  1     ecut=    50.00 Ry     beta= 0.70
     Davidson diagonalization with overlap
     c_bands:  2 eigenvalues not converged
     c_bands:  1 eigenvalues not converged
     c_bands:  1 eigenvalues not converged
     c_bands:  1 eigenvalues not converged
     c_bands:  1 eigenvalues not converged
     c_bands:  2 eigenvalues not converged
     c_bands:  1 eigenvalues not converged
     c_bands:  1 eigenvalues not converged
     ethr =  1.00E-06,  avg # of iterations = 13.9

[...]

          k =-0.0000 0.0772 0.0000 (  4523 PWs)   bands (ev):

[...]

     Energy error            =      3.5E-04
     Gradient error          =      1.7E-26
     Cell gradient error     =      7.0E-05

[...]

     enthalpy old            =     -22.7910124042 Ry
     enthalpy new            =     -22.7913652540 Ry

     CASE: enthalpy_new < enthalpy_old

[...]

     Writing output data file ./work/LiC466.save/
     NEW-OLD atomic charge density approx. for the potential

     negative rho (up, down):  1.719E-08 0.000E+00
     extrapolated charge    7.96703, renormalised to    8.00000

[...]

     number of scf cycles    =   4
     number of bfgs steps    =   3

     enthalpy old            =     -22.7915828273 Ry
     enthalpy new            =     -22.7916268450 Ry

     CASE: enthalpy_new < enthalpy_old

     new trust radius        =       0.0001965157 bohr
     new conv_thr            =            1.0E-10 Ry

     new unit-cell volume =    750.17844 a.u.^3 (   111.16498 Ang^3 )
     density =      0.35882 g/cm^3

[...]

ATOMIC_POSITIONS (crystal)
C             0.3333333333        0.6666666667        0.5000000000
C             0.6666666667        0.3333333333        0.5000000000

     Writing output data file ./work/LiC466.save/
     NEW-OLD atomic charge density approx. for the potential
     extrapolated charge    8.00057, renormalised to    8.00000

[...]

     Threshold (ethr) on eigenvalues was too large:
     Diagonalizing with lowered threshold

     Davidson diagonalization with overlap
     ethr =  1.11E-09,  avg # of iterations =  1.5

[...]

     Energy error            =      1.4E-08
     Gradient error          =      0.0E+00
     Cell gradient error     =      1.8E-09

     bfgs converged in   5 scf cycles and   4 bfgs steps
     (criteria: energy <  1.0E-04 Ry, force <  1.0E-08Ry/Bohr, cell <  1.0E-03kbar)

     End of BFGS Geometry Optimization

     Final enthalpy =     -22.7916268589 Ry

     File ./work/LiC466.bfgs deleted, as requested
Begin final coordinates
     new unit-cell volume =    750.17844 a.u.^3 (   111.16498 Ang^3 )
     density =      0.35882 g/cm^3

CELL_PARAMETERS (alat=  4.66000000)
   0.992438369   0.000000000   0.000000000
  -0.496219185   0.859476840   0.000000000
   0.000000000   0.000000000   8.690987124

ATOMIC_POSITIONS (crystal)
C             0.3333333333        0.6666666667        0.5000000000
C             0.6666666667        0.3333333333        0.5000000000
End final coordinates

     Writing output data file ./work/LiC466.save/

     Final scf calculation at the relaxed structure.
     The G-vectors are recalculated for the final unit cell
     Results may differ from those at the preceding step.

     bravais-lattice index     =            4
     lattice parameter (alat)  =       4.6600  a.u.
     unit-cell volume          =     750.1784 (a.u.)^3
     number of atoms/cell      =            2
     number of atomic types    =            1
     number of electrons       =         8.00
     number of Kohn-Sham states=            8
     kinetic-energy cutoff     =      50.0000  Ry
     charge density cutoff     =     200.0000  Ry
     scf convergence threshold =      1.0E-10
     mixing beta               =       0.7000
     number of iterations used =            8  plain     mixing
     press convergence thresh. =      1.0E-03
     Exchange-correlation= PBE
                           (   1   4   3   4   0   0   0)

     celldm(1)=   4.660000  celldm(2)=   0.000000  celldm(3)=   8.690987
     celldm(4)=   0.000000  celldm(5)=   0.000000  celldm(6)=   0.000000

     crystal axes: (cart. coord. in units of alat)
               a(1) = (   0.992438   0.000000   0.000000 )
               a(2) = (  -0.496219   0.859477   0.000000 )
               a(3) = (   0.000000   0.000000   8.690987 )

     reciprocal axes: (cart. coord. in units 2 pi/alat)
               b(1) = (  1.007619  0.581749  0.000000 )
               b(2) = ( -0.000000  1.163498  0.000000 )
               b(3) = (  0.000000  0.000000  0.115062 )

     PseudoPot. # 1 for C  read from file:
     /home/yhkim/qe-6.7/pseudo/ONCV1/1.2/C_ONCV_PBE-1.2.upf
     MD5 check sum: 1a5f83a7b1f58d24996abe00ed223ac6
     Pseudo is Norm-conserving, Zval =  4.0
     Generated using ONCVPSP code by D. R. Hamann
     Using radial grid of  602 points,  4 beta functions with:
                l(1) =   0
                l(2) =   0
                l(3) =   1
                l(4) =   1

     atomic species   valence    mass     pseudopotential
        C              4.00    12.01070     C ( 1.00)

     24 Sym. Ops., with inversion, found

   Cartesian axes

     site n.     atom                  positions (alat units)
         1           C   tau(   1) = (  -0.0000000   0.5729846   4.3454936  )
         2           C   tau(   2) = (   0.4962192   0.2864923   4.3454936  )

     number of k points=    27  Methfessel-Paxton smearing, width (Ry)=  0.0100
                       cart. coord. in units 2pi/alat
        k(    1) = (   0.0000000   0.0000000   0.0000000), wk =   0.0088889
        k(    2) = (  -0.0000000   0.0775666   0.0000000), wk =   0.0533333
        k(    3) = (  -0.0000000   0.1551331   0.0000000), wk =   0.0533333
        k(    4) = (  -0.0000000   0.2326997   0.0000000), wk =   0.0533333
        k(    5) = (  -0.0000000   0.3102663   0.0000000), wk =   0.0533333
        k(    6) = (  -0.0000000   0.3878328   0.0000000), wk =   0.0533333
        k(    7) = (  -0.0000000   0.4653994   0.0000000), wk =   0.0533333
        k(    8) = (  -0.0000000   0.5429660   0.0000000), wk =   0.0533333
        k(    9) = (   0.0671746   0.1163498   0.0000000), wk =   0.0533333
        k(   10) = (   0.0671746   0.1939164   0.0000000), wk =   0.1066667
        k(   11) = (   0.0671746   0.2714830   0.0000000), wk =   0.1066667
        k(   12) = (   0.0671746   0.3490495   0.0000000), wk =   0.1066667
        k(   13) = (   0.0671746   0.4266161   0.0000000), wk =   0.1066667
        k(   14) = (   0.0671746   0.5041827   0.0000000), wk =   0.1066667
        k(   15) = (   0.0671746   0.5817492   0.0000000), wk =   0.0533333
        k(   16) = (   0.1343492   0.2326997   0.0000000), wk =   0.0533333
        k(   17) = (   0.1343492   0.3102663   0.0000000), wk =   0.1066667
        k(   18) = (   0.1343492   0.3878328   0.0000000), wk =   0.1066667
        k(   19) = (   0.1343492   0.4653994   0.0000000), wk =   0.1066667
        k(   20) = (   0.1343492   0.5429660   0.0000000), wk =   0.1066667
        k(   21) = (   0.2015238   0.3490495   0.0000000), wk =   0.0533333
        k(   22) = (   0.2015238   0.4266161   0.0000000), wk =   0.1066667
        k(   23) = (   0.2015238   0.5041827   0.0000000), wk =   0.1066667
        k(   24) = (   0.2015238   0.5817492   0.0000000), wk =   0.0533333
        k(   25) = (   0.2686985   0.4653994   0.0000000), wk =   0.0533333
        k(   26) = (   0.2686985   0.5429660   0.0000000), wk =   0.1066667
        k(   27) = (   0.3358731   0.5817492   0.0000000), wk =   0.0177778

     Initial potential from superposition of free atoms

     starting charge    7.98607, renormalised to    8.00000

     negative rho (up, down):  1.136E-04 0.000E+00
     Starting wfcs are random

     Self-consistent Calculation

[...]

     negative rho (up, down):  2.895E-06 0.000E+00

[...]

     iteration #  4     ecut=    50.00 Ry     beta= 0.70
     Davidson diagonalization with overlap
     c_bands:  1 eigenvalues not converged
     ethr =  2.19E-06,  avg # of iterations =  6.1

[...]

     total energy              =     -22.79030738 Ry
     estimated scf accuracy    <          9.6E-10 Ry

     iteration #  7     ecut=    50.00 Ry     beta= 0.70
     Davidson diagonalization with overlap
     ethr =  1.19E-11,  avg # of iterations =  3.1

     End of self-consistent calculation

[...]

          k =-0.0000 0.5430 0.0000 (  4517 PWs)   bands (ev):

[...]

          k = 0.3359 0.5817 0.0000 (  4431 PWs)   bands (ev):

   -16.8768 -16.8768 -14.9432  -4.1770  -4.1770   6.4805   8.8596   8.8596

     the Fermi energy is    -4.1770 ev

!    total energy              =     -22.79030738 Ry
     estimated scf accuracy    <          1.0E-11 Ry
     smearing contrib. (-TS)   =      -0.00005015 Ry
     internal energy E=F+TS    =     -22.79025723 Ry

     The total energy is F=E-TS. E is the sum of the following terms:
     one-electron contribution =    -392.73136611 Ry
     hartree contribution      =     196.99949769 Ry
     xc contribution           =      -7.04244538 Ry
     ewald contribution        =     179.98405656 Ry

     convergence has been achieved in   7 iterations

     Forces acting on atoms (cartesian axes, Ry/au):

     atom    1 type  1   force =     0.00000000    0.00000000    0.00000000
     atom    2 type  1   force =    -0.00000000   -0.00000000    0.00000000

     Total force =     0.000000     Total SCF correction =     0.000000

     Computing stress (Cartesian axis) and pressure

          total   stress  (Ry/bohr**3)                   (kbar)     P=       -6.09
  -0.00000713   0.00000000  -0.00000000           -1.05        0.00       -0.00
   0.00000000  -0.00000713   0.00000000            0.00       -1.05        0.00
   0.00000000  -0.00000000  -0.00010991            0.00       -0.00      -16.17

     Writing output data file ./work/LiC466.save/

     General routines

     Parallel routines

   This run was terminated on:  14:14: 3  19Jan2024

   JOB DONE.