     Program PWSCF v.6.7MaX starts on 19Jan2024 at 14:13:36

     R & G space division:  proc/nbgrp/npool/nimage =      32
     Waiting for input...
     Reading input from standard input

     Current dimensions of program PWSCF are:
     Max number of different atomic species (ntypx) = 10
     Max number of k-points (npk) =  40000
     Max angular momentum in pseudopotentials (lmaxx) =  3
     Message from routine read_pp_mesh:
     mesh size missing, using the one in header

     Subspace diagonalization in iterative solution of the eigenvalue problem:
     a serial algorithm will be used

     bravais-lattice index     =            4
     lattice parameter (alat)  =       4.6400  a.u.
     unit-cell volume          =     755.1298 (a.u.)^3
     number of atoms/cell      =            2
     number of atomic types    =            1
     number of electrons       =         8.00
     number of Kohn-Sham states=            8
     kinetic-energy cutoff     =      50.0000  Ry
     charge density cutoff     =     200.0000  Ry
     scf convergence threshold =      1.0E-08
     mixing beta               =       0.7000
     number of iterations used =            8  plain     mixing
     energy convergence thresh.=      1.0E-04
     force convergence thresh. =      1.0E-08
     press convergence thresh. =      1.0E-03
     Exchange-correlation= PBE
                           (   1   4   3   4   0   0   0)
     nstep                     =           50

     celldm(1)=   4.640000  celldm(2)=   0.000000  celldm(3)=   8.728448
     celldm(4)=   0.000000  celldm(5)=   0.000000  celldm(6)=   0.000000

     crystal axes: (cart. coord. in units of alat)
               a(1) = (   1.000000   0.000000   0.000000 )
               a(2) = (  -0.500000   0.866025   0.000000 )
               a(3) = (   0.000000   0.000000   8.728448 )

     reciprocal axes: (cart. coord. in units 2 pi/alat)
               b(1) = (  1.000000  0.577350  0.000000 )
               b(2) = (  0.000000  1.154701  0.000000 )
               b(3) = (  0.000000  0.000000  0.114568 )

     PseudoPot. # 1 for C  read from file:
     /home/yhkim/qe-6.7/pseudo/ONCV1/1.2/C_ONCV_PBE-1.2.upf
     MD5 check sum: 1a5f83a7b1f58d24996abe00ed223ac6
     Pseudo is Norm-conserving, Zval =  4.0
     Generated using ONCVPSP code by D. R. Hamann
     Using radial grid of  602 points,  4 beta functions with:
                l(1) =   0
                l(2) =   0
                l(3) =   1
                l(4) =   1

     atomic species   valence    mass     pseudopotential
        C              4.00    12.01070     C ( 1.00)

     24 Sym. Ops., with inversion, found

   Cartesian axes

     site n.     atom                  positions (alat units)
         1           C   tau(   1) = (  -0.0000000   0.5773503   4.3642241  )
         2           C   tau(   2) = (   0.5000000   0.2886751   4.3642241  )

     number of k points=    27  Methfessel-Paxton smearing, width (Ry)=  0.0100
                       cart. coord. in units 2pi/alat
        k(    1) = (   0.0000000   0.0000000   0.0000000), wk =   0.0088889
        k(    2) = (   0.0000000   0.0769800   0.0000000), wk =   0.0533333
        k(    3) = (   0.0000000   0.1539601   0.0000000), wk =   0.0533333
        k(    4) = (   0.0000000   0.2309401   0.0000000), wk =   0.0533333
        k(    5) = (   0.0000000   0.3079201   0.0000000), wk =   0.0533333
        k(    6) = (   0.0000000   0.3849002   0.0000000), wk =   0.0533333
        k(    7) = (   0.0000000   0.4618802   0.0000000), wk =   0.0533333
        k(    8) = (   0.0000000   0.5388603   0.0000000), wk =   0.0533333
        k(    9) = (   0.0666667   0.1154701   0.0000000), wk =   0.0533333
        k(   10) = (   0.0666667   0.1924501   0.0000000), wk =   0.1066667
        k(   11) = (   0.0666667   0.2694301   0.0000000), wk =   0.1066667
        k(   12) = (   0.0666667   0.3464102   0.0000000), wk =   0.1066667
        k(   13) = (   0.0666667   0.4233902   0.0000000), wk =   0.1066667
        k(   14) = (   0.0666667   0.5003702   0.0000000), wk =   0.1066667
        k(   15) = (   0.0666667   0.5773503   0.0000000), wk =   0.0533333
        k(   16) = (   0.1333333   0.2309401   0.0000000), wk =   0.0533333
        k(   17) = (   0.1333333   0.3079201   0.0000000), wk =   0.1066667
        k(   18) = (   0.1333333   0.3849002   0.0000000), wk =   0.1066667
        k(   19) = (   0.1333333   0.4618802   0.0000000), wk =   0.1066667
        k(   20) = (   0.1333333   0.5388603   0.0000000), wk =   0.1066667
        k(   21) = (   0.2000000   0.3464102   0.0000000), wk =   0.0533333
        k(   22) = (   0.2000000   0.4233902   0.0000000), wk =   0.1066667
        k(   23) = (   0.2000000   0.5003702   0.0000000), wk =   0.1066667
        k(   24) = (   0.2000000   0.5773503   0.0000000), wk =   0.0533333
        k(   25) = (   0.2666667   0.4618802   0.0000000), wk =   0.0533333
        k(   26) = (   0.2666667   0.5388603   0.0000000), wk =   0.1066667
        k(   27) = (   0.3333333   0.5773503   0.0000000), wk =   0.0177778

     Initial potential from superposition of free atoms

     starting charge    7.98607, renormalised to    8.00000

     negative rho (up, down):  1.164E-04 0.000E+00
     Starting wfcs are random

     Self-consistent Calculation

     iteration #  1     ecut=    50.00 Ry     beta= 0.70
     Davidson diagonalization with overlap
     ethr =  1.00E-02,  avg # of iterations = 12.0

     negative rho (up, down):  6.310E-08 0.000E+00

     total energy              =     -22.76100079 Ry
     estimated scf accuracy    <       0.17331997 Ry

[...]

     iteration #  4     ecut=    50.00 Ry     beta= 0.70
     Davidson diagonalization with overlap
     c_bands:  1 eigenvalues not converged
     ethr =  1.85E-06,  avg # of iterations =  6.0

[...]

     End of self-consistent calculation

          k = 0.0000 0.0000 0.0000 (  4483 PWs)   bands (ev):

   -23.8551 -11.9218  -7.2872  -7.2872  -0.9824  -0.2033   0.5848   0.9398

[...]

     the Fermi energy is    -4.2056 ev

!    total energy              =     -22.79080111 Ry
     estimated scf accuracy    <          3.0E-10 Ry
     smearing contrib. (-TS)   =      -0.00005015 Ry
     internal energy E=F+TS    =     -22.79075096 Ry

     The total energy is F=E-TS. E is the sum of the following terms:
     one-electron contribution =    -390.12630982 Ry
     hartree contribution      =     195.69021913 Ry
     xc contribution           =      -7.02821544 Ry
     ewald contribution        =     178.67355517 Ry

     convergence has been achieved in   6 iterations

     Forces acting on atoms (cartesian axes, Ry/au):

     atom    1 type  1   force =    -0.00000000   -0.00000000    0.00000000
     atom    2 type  1   force =     0.00000000    0.00000000    0.00000000

     Total force =     0.000000     Total SCF correction =     0.000000

     Computing stress (Cartesian axis) and pressure

          total   stress  (Ry/bohr**3)                   (kbar)     P=      -10.28
  -0.00005041  -0.00000000   0.00000000           -7.42       -0.00        0.00
  -0.00000000  -0.00005041   0.00000000           -0.00       -7.42        0.00
  -0.00000000  -0.00000000  -0.00010882           -0.00       -0.00      -16.01

     BFGS Geometry Optimization
     Energy error            =      0.0E+00
     Gradient error          =      1.7E-26
     Cell gradient error     =      5.0E-05

     number of scf cycles    =   1
     number of bfgs steps    =   0

     enthalpy new            =     -22.7908011113 Ry

     new trust radius        =       0.0069267224 bohr
     new conv_thr            =       0.0000000100 Ry

     new unit-cell volume =    753.22757 a.u.^3 (   111.61681 Ang^3 )
     density =      0.35737 g/cm^3

CELL_PARAMETERS (alat=  4.64000000)
   0.998739662  -0.000000000   0.000000000
  -0.499369831   0.864933919   0.000000000
   0.000000000   0.000000000   8.728448276

ATOMIC_POSITIONS (crystal)
C             0.3333333333        0.6666666667        0.5000000000
C             0.6666666667        0.3333333333        0.5000000000

     Writing output data file ./work/LiC464.save/
     NEW-OLD atomic charge density approx. for the potential

     negative rho (up, down):  3.454E-08 0.000E+00
     extrapolated charge    7.97983, renormalised to    8.00000

[...]

     Energy error            =      7.9E-05
     Gradient error          =      1.7E-26
     Cell gradient error     =      3.3E-05

[...]

     enthalpy old            =     -22.7908011113 Ry
     enthalpy new            =     -22.7908801913 Ry

     CASE: enthalpy_new < enthalpy_old

[...]

     Writing output data file ./work/LiC464.save/
     NEW-OLD atomic charge density approx. for the potential

     negative rho (up, down):  3.292E-08 0.000E+00
     extrapolated charge    7.97778, renormalised to    8.00000

[...]

          k =-0.0000 0.0772 0.0000 (  4475 PWs)   bands (ev):

[...]

     Writing output data file ./work/LiC464.save/
     NEW-OLD atomic charge density approx. for the potential
     extrapolated charge    7.98550, renormalised to    8.00000

[...]

     small trust_radius: resetting bfgs history

[...]

     Threshold (ethr) on eigenvalues was too large:
     Diagonalizing with lowered threshold

     Davidson diagonalization with overlap
     ethr =  4.13E-12,  avg # of iterations =  2.0

[...]

     Energy error            =      2.8E-10
     Gradient error          =      1.7E-26
     Cell gradient error     =      6.0E-08

     number of scf cycles    =   5
     number of bfgs steps    =   4

     enthalpy old            =     -22.7909366419 Ry
     enthalpy new            =     -22.7909366422 Ry

     CASE: enthalpy_new < enthalpy_old

     Message from routine bfgs:
     history already reset at previous step: stopping
     small trust_radius: resetting bfgs history

     new trust radius        =       0.0000082004 bohr
     new conv_thr            =            1.0E-10 Ry

     new unit-cell volume =    749.78202 a.u.^3 (   111.10623 Ang^3 )
     density =      0.35901 g/cm^3

[...]

ATOMIC_POSITIONS (crystal)
C             0.3333333333        0.6666666667        0.5000000000
C             0.6666666667        0.3333333333        0.5000000000

     Writing output data file ./work/LiC464.save/
     NEW-OLD atomic charge density approx. for the potential
     extrapolated charge    8.00002, renormalised to    8.00000

[...]

     Threshold (ethr) on eigenvalues was too large:
     Diagonalizing with lowered threshold

     Davidson diagonalization with overlap
     ethr =  2.49E-12,  avg # of iterations =  1.9

[...]

     Message from routine bfgs:
     history already reset at previous step: stopping
     Energy error            =      9.8E-11
     Gradient error          =      0.0E+00
     Cell gradient error     =      3.8E-08

     bfgs converged in   6 scf cycles and   5 bfgs steps
     (criteria: energy <  1.0E-04 Ry, force <  1.0E-08Ry/Bohr, cell <  1.0E-03kbar)

     End of BFGS Geometry Optimization

     Final enthalpy =     -22.7909366423 Ry

     File ./work/LiC464.bfgs deleted, as requested
Begin final coordinates
     new unit-cell volume =    749.78202 a.u.^3 (   111.10623 Ang^3 )
     density =      0.35901 g/cm^3

CELL_PARAMETERS (alat=  4.64000000)
   0.996452733   0.000000000   0.000000000
  -0.498226366   0.862953380   0.000000000
   0.000000000   0.000000000   8.728448276

ATOMIC_POSITIONS (crystal)
C             0.3333333333        0.6666666667        0.5000000000
C             0.6666666667        0.3333333333        0.5000000000
End final coordinates

     Writing output data file ./work/LiC464.save/

     Final scf calculation at the relaxed structure.
     The G-vectors are recalculated for the final unit cell
     Results may differ from those at the preceding step.

     bravais-lattice index     =            4
     lattice parameter (alat)  =       4.6400  a.u.
     unit-cell volume          =     749.7820 (a.u.)^3
     number of atoms/cell      =            2
     number of atomic types    =            1
     number of electrons       =         8.00
     number of Kohn-Sham states=            8
     kinetic-energy cutoff     =      50.0000  Ry
     charge density cutoff     =     200.0000  Ry
     scf convergence threshold =      1.0E-10
     mixing beta               =       0.7000
     number of iterations used =            8  plain     mixing
     press convergence thresh. =      1.0E-03
     Exchange-correlation= PBE
                           (   1   4   3   4   0   0   0)

     celldm(1)=   4.640000  celldm(2)=   0.000000  celldm(3)=   8.728448
     celldm(4)=   0.000000  celldm(5)=   0.000000  celldm(6)=   0.000000

     crystal axes: (cart. coord. in units of alat)
               a(1) = (   0.996453   0.000000   0.000000 )
               a(2) = (  -0.498226   0.862953   0.000000 )
               a(3) = (   0.000000   0.000000   8.728448 )

     reciprocal axes: (cart. coord. in units 2 pi/alat)
               b(1) = (  1.003560  0.579406  0.000000 )
               b(2) = ( -0.000000  1.158811  0.000000 )
               b(3) = (  0.000000  0.000000  0.114568 )

     PseudoPot. # 1 for C  read from file:
     /home/yhkim/qe-6.7/pseudo/ONCV1/1.2/C_ONCV_PBE-1.2.upf
     MD5 check sum: 1a5f83a7b1f58d24996abe00ed223ac6
     Pseudo is Norm-conserving, Zval =  4.0
     Generated using ONCVPSP code by D. R. Hamann
     Using radial grid of  602 points,  4 beta functions with:
                l(1) =   0
                l(2) =   0
                l(3) =   1
                l(4) =   1

     atomic species   valence    mass     pseudopotential
        C              4.00    12.01070     C ( 1.00)

     24 Sym. Ops., with inversion, found

   Cartesian axes

     site n.     atom                  positions (alat units)
         1           C   tau(   1) = (  -0.0000000   0.5753023   4.3642241  )
         2           C   tau(   2) = (   0.4982264   0.2876511   4.3642241  )

     number of k points=    27  Methfessel-Paxton smearing, width (Ry)=  0.0100
                       cart. coord. in units 2pi/alat
        k(    1) = (   0.0000000   0.0000000   0.0000000), wk =   0.0088889
        k(    2) = (  -0.0000000   0.0772541   0.0000000), wk =   0.0533333
        k(    3) = (  -0.0000000   0.1545082   0.0000000), wk =   0.0533333
        k(    4) = (  -0.0000000   0.2317622   0.0000000), wk =   0.0533333
        k(    5) = (  -0.0000000   0.3090163   0.0000000), wk =   0.0533333
        k(    6) = (  -0.0000000   0.3862704   0.0000000), wk =   0.0533333
        k(    7) = (  -0.0000000   0.4635245   0.0000000), wk =   0.0533333
        k(    8) = (  -0.0000000   0.5407785   0.0000000), wk =   0.0533333
        k(    9) = (   0.0669040   0.1158811   0.0000000), wk =   0.0533333
        k(   10) = (   0.0669040   0.1931352   0.0000000), wk =   0.1066667
        k(   11) = (   0.0669040   0.2703893   0.0000000), wk =   0.1066667
        k(   12) = (   0.0669040   0.3476433   0.0000000), wk =   0.1066667
        k(   13) = (   0.0669040   0.4248974   0.0000000), wk =   0.1066667
        k(   14) = (   0.0669040   0.5021515   0.0000000), wk =   0.1066667
        k(   15) = (   0.0669040   0.5794056   0.0000000), wk =   0.0533333
        k(   16) = (   0.1338080   0.2317622   0.0000000), wk =   0.0533333
        k(   17) = (   0.1338080   0.3090163   0.0000000), wk =   0.1066667
        k(   18) = (   0.1338080   0.3862704   0.0000000), wk =   0.1066667
        k(   19) = (   0.1338080   0.4635245   0.0000000), wk =   0.1066667
        k(   20) = (   0.1338080   0.5407785   0.0000000), wk =   0.1066667
        k(   21) = (   0.2007120   0.3476433   0.0000000), wk =   0.0533333
        k(   22) = (   0.2007120   0.4248974   0.0000000), wk =   0.1066667
        k(   23) = (   0.2007120   0.5021515   0.0000000), wk =   0.1066667
        k(   24) = (   0.2007120   0.5794056   0.0000000), wk =   0.0533333
        k(   25) = (   0.2676160   0.4635245   0.0000000), wk =   0.0533333
        k(   26) = (   0.2676160   0.5407785   0.0000000), wk =   0.1066667
        k(   27) = (   0.3345200   0.5794056   0.0000000), wk =   0.0177778

     Initial potential from superposition of free atoms

     starting charge    7.98607, renormalised to    8.00000

     negative rho (up, down):  1.135E-04 0.000E+00
     Starting wfcs are random

     Self-consistent Calculation

[...]

     negative rho (up, down):  2.914E-06 0.000E+00

[...]

     iteration #  5     ecut=    50.00 Ry     beta= 0.70
     Davidson diagonalization with overlap
     c_bands:  1 eigenvalues not converged
     ethr =  1.58E-08,  avg # of iterations =  4.4

[...]

     total energy              =     -22.79027933 Ry
     estimated scf accuracy    <          8.8E-10 Ry

     iteration #  7     ecut=    50.00 Ry     beta= 0.70
     Davidson diagonalization with overlap
     ethr =  1.10E-11,  avg # of iterations =  3.1

     End of self-consistent calculation

[...]

          k =-0.0000 0.5408 0.0000 (  4513 PWs)   bands (ev):

[...]

          k = 0.3345 0.5794 0.0000 (  4425 PWs)   bands (ev):

   -16.8767 -16.8767 -14.9466  -4.1743  -4.1743   6.4840   8.8672   8.8672

     the Fermi energy is    -4.1743 ev

!    total energy              =     -22.79027933 Ry
     estimated scf accuracy    <          1.2E-11 Ry
     smearing contrib. (-TS)   =      -0.00005015 Ry
     internal energy E=F+TS    =     -22.79022918 Ry

     The total energy is F=E-TS. E is the sum of the following terms:
     one-electron contribution =    -392.94149038 Ry
     hartree contribution      =     197.10510660 Ry
     xc contribution           =      -7.04359287 Ry
     ewald contribution        =     180.08974747 Ry

     convergence has been achieved in   7 iterations

     Forces acting on atoms (cartesian axes, Ry/au):

     atom    1 type  1   force =     0.00000000    0.00000000    0.00000000
     atom    2 type  1   force =    -0.00000000   -0.00000000    0.00000000

     Total force =     0.000000     Total SCF correction =     0.000000

     Computing stress (Cartesian axis) and pressure

          total   stress  (Ry/bohr**3)                   (kbar)     P=       -5.73
  -0.00000350   0.00000000   0.00000000           -0.52        0.00        0.00
   0.00000000  -0.00000350   0.00000000            0.00       -0.52        0.00
   0.00000000   0.00000000  -0.00010992            0.00        0.00      -16.17

     Writing output data file ./work/LiC464.save/

     General routines

     Parallel routines

   This run was terminated on:  14:13:45  19Jan2024

   JOB DONE.