     Program PWSCF v.6.7MaX starts on 19Jan2024 at 15:46:57

     R & G space division:  proc/nbgrp/npool/nimage =      32
     Waiting for input...
     Reading input from standard input

     Current dimensions of program PWSCF are:
     Max number of different atomic species (ntypx) = 10
     Max number of k-points (npk) =  40000
     Max angular momentum in pseudopotentials (lmaxx) =  3
     Message from routine read_pp_mesh:
     mesh size missing, using the one in header

     Subspace diagonalization in iterative solution of the eigenvalue problem:
     a serial algorithm will be used

     bravais-lattice index     =            4
     lattice parameter (alat)  =       5.1000  a.u.
     unit-cell volume          =     912.2755 (a.u.)^3
     number of atoms/cell      =            2
     number of atomic types    =            1
     number of electrons       =         8.00
     number of Kohn-Sham states=            8
     kinetic-energy cutoff     =      50.0000  Ry
     charge density cutoff     =     200.0000  Ry
     scf convergence threshold =      1.0E-08
     mixing beta               =       0.7000
     number of iterations used =            8  plain     mixing
     energy convergence thresh.=      1.0E-04
     force convergence thresh. =      1.0E-08
     press convergence thresh. =      1.0E-03
     Exchange-correlation= PBE
                           (   1   4   3   4   0   0   0)
     nstep                     =           50

     celldm(1)=   5.100000  celldm(2)=   0.000000  celldm(3)=   7.941176
     celldm(4)=   0.000000  celldm(5)=   0.000000  celldm(6)=   0.000000

     crystal axes: (cart. coord. in units of alat)
               a(1) = (   1.000000   0.000000   0.000000 )
               a(2) = (  -0.500000   0.866025   0.000000 )
               a(3) = (   0.000000   0.000000   7.941176 )

     reciprocal axes: (cart. coord. in units 2 pi/alat)
               b(1) = (  1.000000  0.577350  0.000000 )
               b(2) = (  0.000000  1.154701  0.000000 )
               b(3) = (  0.000000  0.000000  0.125926 )

     PseudoPot. # 1 for C  read from file:
     /home/yhkim/qe-6.7/pseudo/ONCV1/1.2/C_ONCV_PBE-1.2.upf
     MD5 check sum: 1a5f83a7b1f58d24996abe00ed223ac6
     Pseudo is Norm-conserving, Zval =  4.0
     Generated using ONCVPSP code by D. R. Hamann
     Using radial grid of  602 points,  4 beta functions with:
                l(1) =   0
                l(2) =   0
                l(3) =   1
                l(4) =   1

     atomic species   valence    mass     pseudopotential
        C              4.00    12.01070     C ( 1.00)

     24 Sym. Ops., with inversion, found

   Cartesian axes

     site n.     atom                  positions (alat units)
         1           C   tau(   1) = (  -0.0000000   0.5773503   3.9705882  )
         2           C   tau(   2) = (   0.5000000   0.2886751   3.9705882  )

     number of k points=    27  Methfessel-Paxton smearing, width (Ry)=  0.0100
                       cart. coord. in units 2pi/alat
        k(    1) = (   0.0000000   0.0000000   0.0000000), wk =   0.0088889
        k(    2) = (   0.0000000   0.0769800   0.0000000), wk =   0.0533333
        k(    3) = (   0.0000000   0.1539601   0.0000000), wk =   0.0533333
        k(    4) = (   0.0000000   0.2309401   0.0000000), wk =   0.0533333
        k(    5) = (   0.0000000   0.3079201   0.0000000), wk =   0.0533333
        k(    6) = (   0.0000000   0.3849002   0.0000000), wk =   0.0533333
        k(    7) = (   0.0000000   0.4618802   0.0000000), wk =   0.0533333
        k(    8) = (   0.0000000   0.5388603   0.0000000), wk =   0.0533333
        k(    9) = (   0.0666667   0.1154701   0.0000000), wk =   0.0533333
        k(   10) = (   0.0666667   0.1924501   0.0000000), wk =   0.1066667
        k(   11) = (   0.0666667   0.2694301   0.0000000), wk =   0.1066667
        k(   12) = (   0.0666667   0.3464102   0.0000000), wk =   0.1066667
        k(   13) = (   0.0666667   0.4233902   0.0000000), wk =   0.1066667
        k(   14) = (   0.0666667   0.5003702   0.0000000), wk =   0.1066667
        k(   15) = (   0.0666667   0.5773503   0.0000000), wk =   0.0533333
        k(   16) = (   0.1333333   0.2309401   0.0000000), wk =   0.0533333
        k(   17) = (   0.1333333   0.3079201   0.0000000), wk =   0.1066667
        k(   18) = (   0.1333333   0.3849002   0.0000000), wk =   0.1066667
        k(   19) = (   0.1333333   0.4618802   0.0000000), wk =   0.1066667
        k(   20) = (   0.1333333   0.5388603   0.0000000), wk =   0.1066667
        k(   21) = (   0.2000000   0.3464102   0.0000000), wk =   0.0533333
        k(   22) = (   0.2000000   0.4233902   0.0000000), wk =   0.1066667
        k(   23) = (   0.2000000   0.5003702   0.0000000), wk =   0.1066667
        k(   24) = (   0.2000000   0.5773503   0.0000000), wk =   0.0533333
        k(   25) = (   0.2666667   0.4618802   0.0000000), wk =   0.0533333
        k(   26) = (   0.2666667   0.5388603   0.0000000), wk =   0.1066667
        k(   27) = (   0.3333333   0.5773503   0.0000000), wk =   0.0177778

     Initial potential from superposition of free atoms

     starting charge    7.98607, renormalised to    8.00000

     negative rho (up, down):  1.319E-04 0.000E+00
     Starting wfcs are random

     Self-consistent Calculation

     iteration #  1     ecut=    50.00 Ry     beta= 0.70
     Davidson diagonalization with overlap
     ethr =  1.00E-02,  avg # of iterations = 11.8

     Threshold (ethr) on eigenvalues was too large:
     Diagonalizing with lowered threshold

     Davidson diagonalization with overlap
     ethr =  8.67E-04,  avg # of iterations =  2.8

     negative rho (up, down):  1.994E-05 0.000E+00

     total energy              =     -22.71000579 Ry
     estimated scf accuracy    <       0.07897400 Ry

[...]

     iteration #  4     ecut=    50.00 Ry     beta= 0.70
     Davidson diagonalization with overlap
     c_bands:  1 eigenvalues not converged
     c_bands:  1 eigenvalues not converged
     ethr =  1.36E-06,  avg # of iterations =  6.5

[...]

     End of self-consistent calculation

          k = 0.0000 0.0000 0.0000 (  5407 PWs)   bands (ev):

   -22.4102 -10.8934  -7.9906  -7.9906  -0.9211  -0.1958   0.6097   0.9602

[...]

     the Fermi energy is    -4.9282 ev

!    total energy              =     -22.71995148 Ry
     estimated scf accuracy    <          1.5E-09 Ry
     smearing contrib. (-TS)   =      -0.00005015 Ry
     internal energy E=F+TS    =     -22.71990133 Ry

     The total energy is F=E-TS. E is the sum of the following terms:
     one-electron contribution =    -322.36057754 Ry
     hartree contribution      =     161.65015951 Ry
     xc contribution           =      -6.64797306 Ry
     ewald contribution        =     144.63848975 Ry

     convergence has been achieved in   6 iterations

     Forces acting on atoms (cartesian axes, Ry/au):

     atom    1 type  1   force =     0.00000000    0.00000000    0.00000000
     atom    2 type  1   force =     0.00000000    0.00000000    0.00000000

     Total force =     0.000000     Total SCF correction =     0.000000

     Computing stress (Cartesian axis) and pressure

          total   stress  (Ry/bohr**3)                   (kbar)     P=      -89.38
  -0.00087027   0.00000000   0.00000000         -128.02        0.00        0.00
   0.00000000  -0.00087027  -0.00000000            0.00     -128.02       -0.00
   0.00000000  -0.00000000  -0.00008222            0.00       -0.00      -12.09

     BFGS Geometry Optimization
     Energy error            =      0.0E+00
     Gradient error          =      0.0E+00
     Cell gradient error     =      8.7E-04

     number of scf cycles    =   1
     number of bfgs steps    =   0

     enthalpy new            =     -22.7199514843 Ry

     new trust radius        =       0.1314276045 bohr
     new conv_thr            =       0.0000000100 Ry

     new unit-cell volume =    873.01106 a.u.^3 (   129.36689 Ang^3 )
     density =      0.30834 g/cm^3

CELL_PARAMETERS (alat=  5.10000000)
   0.978243271   0.000000000   0.000000000
  -0.489121636   0.847183524   0.000000000
   0.000000000   0.000000000   7.941176471

ATOMIC_POSITIONS (crystal)
C             0.3333333333        0.6666666667        0.5000000000
C             0.6666666667        0.3333333333        0.5000000000

     Writing output data file ./work/LiC510.save/
     NEW-OLD atomic charge density approx. for the potential

     negative rho (up, down):  9.494E-06 0.000E+00
     extrapolated charge    7.64082, renormalised to    8.00000

[...]

          k =-0.0000 0.0787 0.0000 (  5424 PWs)   bands (ev):

[...]

     Energy error            =      3.2E-02
     Gradient error          =      1.8E-26
     Cell gradient error     =      7.3E-04

[...]

     enthalpy old            =     -22.7199514843 Ry
     enthalpy new            =     -22.7515724471 Ry

     CASE: enthalpy_new < enthalpy_old

     WARNING: bfgs curvature condition failed, Theta= 0.970
     new trust radius        =       0.1445703650 bohr
     new conv_thr            =            1.0E-10 Ry

[...]

          k =-0.0000 0.5647 0.0000 (  5466 PWs)   bands (ev):

[...]

     Writing output data file ./work/LiC510.save/
     NEW-OLD atomic charge density approx. for the potential

     negative rho (up, down):  6.568E-07 0.000E+00
     extrapolated charge    8.02905, renormalised to    8.00000

[...]

     Writing output data file ./work/LiC510.save/
     NEW-OLD atomic charge density approx. for the potential
     extrapolated charge    7.99906, renormalised to    8.00000

[...]

     number of scf cycles    =   7
     number of bfgs steps    =   6

     enthalpy old            =     -22.8004052547 Ry
     enthalpy new            =     -22.8004052907 Ry

     CASE: enthalpy_new < enthalpy_old

     small trust_radius: resetting bfgs history

     new trust radius        =       0.0000010335 bohr
     new conv_thr            =            1.0E-10 Ry

     new unit-cell volume =    755.65165 a.u.^3 (   111.97602 Ang^3 )
     density =      0.35622 g/cm^3

[...]

ATOMIC_POSITIONS (crystal)
C             0.3333333333        0.6666666667        0.5000000000
C             0.6666666667        0.3333333333        0.5000000000

     Writing output data file ./work/LiC510.save/
     NEW-OLD atomic charge density approx. for the potential
     extrapolated charge    8.00000, renormalised to    8.00000

[...]

     Threshold (ethr) on eigenvalues was too large:
     Diagonalizing with lowered threshold

     Davidson diagonalization with overlap
     ethr =  1.19E-13,  avg # of iterations =  2.9

[...]

     Energy error            =      1.2E-11
     Gradient error          =      1.9E-26
     Cell gradient error     =      3.1E-09

     bfgs converged in   8 scf cycles and   7 bfgs steps
     (criteria: energy <  1.0E-04 Ry, force <  1.0E-08Ry/Bohr, cell <  1.0E-03kbar)

     End of BFGS Geometry Optimization

     Final enthalpy =     -22.8004052907 Ry

     File ./work/LiC510.bfgs deleted, as requested
Begin final coordinates
     new unit-cell volume =    755.65165 a.u.^3 (   111.97602 Ang^3 )
     density =      0.35622 g/cm^3

CELL_PARAMETERS (alat=  5.10000000)
   0.910118231  -0.000000000   0.000000000
  -0.455059115   0.788185508   0.000000000
   0.000000000   0.000000000   7.941176471

ATOMIC_POSITIONS (crystal)
C             0.3333333333        0.6666666667        0.5000000000
C             0.6666666667        0.3333333333        0.5000000000
End final coordinates

     Writing output data file ./work/LiC510.save/

     Final scf calculation at the relaxed structure.
     The G-vectors are recalculated for the final unit cell
     Results may differ from those at the preceding step.

     bravais-lattice index     =            4
     lattice parameter (alat)  =       5.1000  a.u.
     unit-cell volume          =     755.6517 (a.u.)^3
     number of atoms/cell      =            2
     number of atomic types    =            1
     number of electrons       =         8.00
     number of Kohn-Sham states=            8
     kinetic-energy cutoff     =      50.0000  Ry
     charge density cutoff     =     200.0000  Ry
     scf convergence threshold =      1.0E-10
     mixing beta               =       0.7000
     number of iterations used =            8  plain     mixing
     press convergence thresh. =      1.0E-03
     Exchange-correlation= PBE
                           (   1   4   3   4   0   0   0)

     celldm(1)=   5.100000  celldm(2)=   0.000000  celldm(3)=   7.941176
     celldm(4)=   0.000000  celldm(5)=   0.000000  celldm(6)=   0.000000

     crystal axes: (cart. coord. in units of alat)
               a(1) = (   0.910118  -0.000000   0.000000 )
               a(2) = (  -0.455059   0.788186   0.000000 )
               a(3) = (   0.000000   0.000000   7.941176 )

     reciprocal axes: (cart. coord. in units 2 pi/alat)
               b(1) = (  1.098758  0.634368  0.000000 )
               b(2) = (  0.000000  1.268737  0.000000 )
               b(3) = (  0.000000  0.000000  0.125926 )

     PseudoPot. # 1 for C  read from file:
     /home/yhkim/qe-6.7/pseudo/ONCV1/1.2/C_ONCV_PBE-1.2.upf
     MD5 check sum: 1a5f83a7b1f58d24996abe00ed223ac6
     Pseudo is Norm-conserving, Zval =  4.0
     Generated using ONCVPSP code by D. R. Hamann
     Using radial grid of  602 points,  4 beta functions with:
                l(1) =   0
                l(2) =   0
                l(3) =   1
                l(4) =   1

     atomic species   valence    mass     pseudopotential
        C              4.00    12.01070     C ( 1.00)

     24 Sym. Ops., with inversion, found

   Cartesian axes

     site n.     atom                  positions (alat units)
         1           C   tau(   1) = (  -0.0000000   0.5254570   3.9705882  )
         2           C   tau(   2) = (   0.4550591   0.2627285   3.9705882  )

     number of k points=    27  Methfessel-Paxton smearing, width (Ry)=  0.0100
                       cart. coord. in units 2pi/alat
        k(    1) = (   0.0000000   0.0000000   0.0000000), wk =   0.0088889
        k(    2) = (   0.0000000   0.0845825   0.0000000), wk =   0.0533333
        k(    3) = (   0.0000000   0.1691649   0.0000000), wk =   0.0533333
        k(    4) = (   0.0000000   0.2537474   0.0000000), wk =   0.0533333
        k(    5) = (   0.0000000   0.3383298   0.0000000), wk =   0.0533333
        k(    6) = (   0.0000000   0.4229123   0.0000000), wk =   0.0533333
        k(    7) = (   0.0000000   0.5074947   0.0000000), wk =   0.0533333
        k(    8) = (   0.0000000   0.5920772   0.0000000), wk =   0.0533333
        k(    9) = (   0.0732506   0.1268737   0.0000000), wk =   0.0533333
        k(   10) = (   0.0732506   0.2114561   0.0000000), wk =   0.1066667
        k(   11) = (   0.0732506   0.2960386   0.0000000), wk =   0.1066667
        k(   12) = (   0.0732506   0.3806211   0.0000000), wk =   0.1066667
        k(   13) = (   0.0732506   0.4652035   0.0000000), wk =   0.1066667
        k(   14) = (   0.0732506   0.5497860   0.0000000), wk =   0.1066667
        k(   15) = (   0.0732506   0.6343684   0.0000000), wk =   0.0533333
        k(   16) = (   0.1465011   0.2537474   0.0000000), wk =   0.0533333
        k(   17) = (   0.1465011   0.3383298   0.0000000), wk =   0.1066667
        k(   18) = (   0.1465011   0.4229123   0.0000000), wk =   0.1066667
        k(   19) = (   0.1465011   0.5074947   0.0000000), wk =   0.1066667
        k(   20) = (   0.1465011   0.5920772   0.0000000), wk =   0.1066667
        k(   21) = (   0.2197517   0.3806211   0.0000000), wk =   0.0533333
        k(   22) = (   0.2197517   0.4652035   0.0000000), wk =   0.1066667
        k(   23) = (   0.2197517   0.5497860   0.0000000), wk =   0.1066667
        k(   24) = (   0.2197517   0.6343684   0.0000000), wk =   0.0533333
        k(   25) = (   0.2930022   0.5074947   0.0000000), wk =   0.0533333
        k(   26) = (   0.2930022   0.5920772   0.0000000), wk =   0.1066667
        k(   27) = (   0.3662528   0.6343684   0.0000000), wk =   0.0177778

     Initial potential from superposition of free atoms

     starting charge    7.98607, renormalised to    8.00000

     negative rho (up, down):  1.152E-04 0.000E+00
     Starting wfcs are random

     Self-consistent Calculation

     iteration #  1     ecut=    50.00 Ry     beta= 0.70
     Davidson diagonalization with overlap
     c_bands:  5 eigenvalues not converged
     c_bands:  3 eigenvalues not converged
     c_bands:  5 eigenvalues not converged
     c_bands:  4 eigenvalues not converged
     c_bands:  4 eigenvalues not converged
     c_bands:  4 eigenvalues not converged
     c_bands:  2 eigenvalues not converged
     c_bands:  2 eigenvalues not converged
     c_bands:  3 eigenvalues not converged
     c_bands:  5 eigenvalues not converged
     c_bands:  4 eigenvalues not converged
     c_bands:  4 eigenvalues not converged
     c_bands:  4 eigenvalues not converged
     c_bands:  2 eigenvalues not converged
     c_bands:  3 eigenvalues not converged
     c_bands:  4 eigenvalues not converged
     c_bands:  4 eigenvalues not converged
     c_bands:  3 eigenvalues not converged
     c_bands:  3 eigenvalues not converged
     c_bands:  3 eigenvalues not converged
     c_bands:  4 eigenvalues not converged
     c_bands:  3 eigenvalues not converged
     c_bands:  3 eigenvalues not converged
     c_bands:  3 eigenvalues not converged
     c_bands:  3 eigenvalues not converged
     c_bands:  3 eigenvalues not converged
     c_bands:  3 eigenvalues not converged
     ethr =  1.00E-06,  avg # of iterations = 21.5

[...]

     negative rho (up, down):  2.962E-06 0.000E+00

[...]

     total energy              =     -22.79081258 Ry
     estimated scf accuracy    <          7.1E-10 Ry

     iteration #  7     ecut=    50.00 Ry     beta= 0.70
     Davidson diagonalization with overlap
     ethr =  8.93E-12,  avg # of iterations =  3.2

     End of self-consistent calculation

[...]

          k = 0.3663 0.6344 0.0000 (  4485 PWs)   bands (ev):

   -16.8767 -16.8767 -14.8927  -4.2086  -4.2086   6.4321   8.7539   8.7541

     the Fermi energy is    -4.2086 ev

!    total energy              =     -22.79081258 Ry
     estimated scf accuracy    <          1.2E-11 Ry
     smearing contrib. (-TS)   =      -0.00005015 Ry
     internal energy E=F+TS    =     -22.79076243 Ry

     The total energy is F=E-TS. E is the sum of the following terms:
     one-electron contribution =    -389.85375457 Ry
     hartree contribution      =     195.55325641 Ry
     xc contribution           =      -7.02672728 Ry
     ewald contribution        =     178.53646301 Ry

     convergence has been achieved in   7 iterations

     Forces acting on atoms (cartesian axes, Ry/au):

     atom    1 type  1   force =     0.00000000    0.00000000    0.00000000
     atom    2 type  1   force =     0.00000000    0.00000000    0.00000000

     Total force =     0.000000     Total SCF correction =     0.000000

     Computing stress (Cartesian axis) and pressure

          total   stress  (Ry/bohr**3)                   (kbar)     P=      -10.73
  -0.00005503  -0.00000000   0.00000000           -8.10       -0.00        0.00
  -0.00000000  -0.00005503   0.00000000           -0.00       -8.10        0.00
   0.00000000   0.00000000  -0.00010874            0.00        0.00      -16.00

     Writing output data file ./work/LiC510.save/

     General routines

     Parallel routines

   This run was terminated on:  15:47:12  19Jan2024

   JOB DONE.