     Program PWSCF v.6.7MaX starts on 19Jan2024 at 14:18: 6

     R & G space division:  proc/nbgrp/npool/nimage =      32
     Waiting for input...
     Reading input from standard input

     Current dimensions of program PWSCF are:
     Max number of different atomic species (ntypx) = 10
     Max number of k-points (npk) =  40000
     Max angular momentum in pseudopotentials (lmaxx) =  3
     Message from routine read_pp_mesh:
     mesh size missing, using the one in header

     Subspace diagonalization in iterative solution of the eigenvalue problem:
     a serial algorithm will be used

     bravais-lattice index     =            4
     lattice parameter (alat)  =       4.8600  a.u.
     unit-cell volume          =     828.4345 (a.u.)^3
     number of atoms/cell      =            2
     number of atomic types    =            1
     number of electrons       =         8.00
     number of Kohn-Sham states=            8
     kinetic-energy cutoff     =      50.0000  Ry
     charge density cutoff     =     200.0000  Ry
     scf convergence threshold =      1.0E-08
     mixing beta               =       0.7000
     number of iterations used =            8  plain     mixing
     energy convergence thresh.=      1.0E-04
     force convergence thresh. =      1.0E-08
     press convergence thresh. =      1.0E-03
     Exchange-correlation= PBE
                           (   1   4   3   4   0   0   0)
     nstep                     =           50

     celldm(1)=   4.860000  celldm(2)=   0.000000  celldm(3)=   8.333333
     celldm(4)=   0.000000  celldm(5)=   0.000000  celldm(6)=   0.000000

     crystal axes: (cart. coord. in units of alat)
               a(1) = (   1.000000   0.000000   0.000000 )
               a(2) = (  -0.500000   0.866025   0.000000 )
               a(3) = (   0.000000   0.000000   8.333333 )

     reciprocal axes: (cart. coord. in units 2 pi/alat)
               b(1) = (  1.000000  0.577350  0.000000 )
               b(2) = (  0.000000  1.154701  0.000000 )
               b(3) = (  0.000000  0.000000  0.120000 )

     PseudoPot. # 1 for C  read from file:
     /home/yhkim/qe-6.7/pseudo/ONCV1/1.2/C_ONCV_PBE-1.2.upf
     MD5 check sum: 1a5f83a7b1f58d24996abe00ed223ac6
     Pseudo is Norm-conserving, Zval =  4.0
     Generated using ONCVPSP code by D. R. Hamann
     Using radial grid of  602 points,  4 beta functions with:
                l(1) =   0
                l(2) =   0
                l(3) =   1
                l(4) =   1

     atomic species   valence    mass     pseudopotential
        C              4.00    12.01070     C ( 1.00)

     24 Sym. Ops., with inversion, found

   Cartesian axes

     site n.     atom                  positions (alat units)
         1           C   tau(   1) = (  -0.0000000   0.5773503   4.1666667  )
         2           C   tau(   2) = (   0.5000000   0.2886751   4.1666667  )

     number of k points=    27  Methfessel-Paxton smearing, width (Ry)=  0.0100
                       cart. coord. in units 2pi/alat
        k(    1) = (   0.0000000   0.0000000   0.0000000), wk =   0.0088889
        k(    2) = (   0.0000000   0.0769800   0.0000000), wk =   0.0533333
        k(    3) = (   0.0000000   0.1539601   0.0000000), wk =   0.0533333
        k(    4) = (   0.0000000   0.2309401   0.0000000), wk =   0.0533333
        k(    5) = (   0.0000000   0.3079201   0.0000000), wk =   0.0533333
        k(    6) = (   0.0000000   0.3849002   0.0000000), wk =   0.0533333
        k(    7) = (   0.0000000   0.4618802   0.0000000), wk =   0.0533333
        k(    8) = (   0.0000000   0.5388603   0.0000000), wk =   0.0533333
        k(    9) = (   0.0666667   0.1154701   0.0000000), wk =   0.0533333
        k(   10) = (   0.0666667   0.1924501   0.0000000), wk =   0.1066667
        k(   11) = (   0.0666667   0.2694301   0.0000000), wk =   0.1066667
        k(   12) = (   0.0666667   0.3464102   0.0000000), wk =   0.1066667
        k(   13) = (   0.0666667   0.4233902   0.0000000), wk =   0.1066667
        k(   14) = (   0.0666667   0.5003702   0.0000000), wk =   0.1066667
        k(   15) = (   0.0666667   0.5773503   0.0000000), wk =   0.0533333
        k(   16) = (   0.1333333   0.2309401   0.0000000), wk =   0.0533333
        k(   17) = (   0.1333333   0.3079201   0.0000000), wk =   0.1066667
        k(   18) = (   0.1333333   0.3849002   0.0000000), wk =   0.1066667
        k(   19) = (   0.1333333   0.4618802   0.0000000), wk =   0.1066667
        k(   20) = (   0.1333333   0.5388603   0.0000000), wk =   0.1066667
        k(   21) = (   0.2000000   0.3464102   0.0000000), wk =   0.0533333
        k(   22) = (   0.2000000   0.4233902   0.0000000), wk =   0.1066667
        k(   23) = (   0.2000000   0.5003702   0.0000000), wk =   0.1066667
        k(   24) = (   0.2000000   0.5773503   0.0000000), wk =   0.0533333
        k(   25) = (   0.2666667   0.4618802   0.0000000), wk =   0.0533333
        k(   26) = (   0.2666667   0.5388603   0.0000000), wk =   0.1066667
        k(   27) = (   0.3333333   0.5773503   0.0000000), wk =   0.0177778

     Initial potential from superposition of free atoms

     starting charge    7.98607, renormalised to    8.00000

     negative rho (up, down):  1.200E-04 0.000E+00
     Starting wfcs are random

     Self-consistent Calculation

     iteration #  1     ecut=    50.00 Ry     beta= 0.70
     Davidson diagonalization with overlap
     ethr =  1.00E-02,  avg # of iterations = 12.0

     negative rho (up, down):  4.503E-08 0.000E+00

     total energy              =     -22.75210674 Ry
     estimated scf accuracy    <       0.11393335 Ry

[...]

     iteration #  4     ecut=    50.00 Ry     beta= 0.70
     Davidson diagonalization with overlap
     c_bands:  1 eigenvalues not converged
     ethr =  1.57E-06,  avg # of iterations =  5.8

[...]

     End of self-consistent calculation

          k = 0.0000 0.0000 0.0000 (  5035 PWs)   bands (ev):

   -23.1426 -11.3989  -7.6865  -7.6865  -0.9535  -0.1993   0.5978   0.9510

[...]

     the Fermi energy is    -4.5833 ev

!    total energy              =     -22.77458213 Ry
     estimated scf accuracy    <          4.4E-10 Ry
     smearing contrib. (-TS)   =      -0.00005015 Ry
     internal energy E=F+TS    =     -22.77453198 Ry

     The total energy is F=E-TS. E is the sum of the following terms:
     one-electron contribution =    -355.25838727 Ry
     hartree contribution      =     178.17078300 Ry
     xc contribution           =      -6.83489176 Ry
     ewald contribution        =     161.14796405 Ry

     convergence has been achieved in   6 iterations

     Forces acting on atoms (cartesian axes, Ry/au):

     atom    1 type  1   force =     0.00000000    0.00000000    0.00000000
     atom    2 type  1   force =     0.00000000    0.00000000    0.00000000

     Total force =     0.000000     Total SCF correction =     0.000000

     Computing stress (Cartesian axis) and pressure

          total   stress  (Ry/bohr**3)                   (kbar)     P=      -58.38
  -0.00054773  -0.00000000   0.00000000          -80.57       -0.00        0.00
  -0.00000000  -0.00054773   0.00000000           -0.00      -80.57        0.00
   0.00000000  -0.00000000  -0.00009515            0.00       -0.00      -14.00

     BFGS Geometry Optimization
     Energy error            =      0.0E+00
     Gradient error          =      0.0E+00
     Cell gradient error     =      5.5E-04

     number of scf cycles    =   1
     number of bfgs steps    =   0

     enthalpy new            =     -22.7745821288 Ry

     new trust radius        =       0.0788248027 bohr
     new conv_thr            =       0.0000000100 Ry

     new unit-cell volume =    805.90209 a.u.^3 (   119.42237 Ang^3 )
     density =      0.33401 g/cm^3

CELL_PARAMETERS (alat=  4.86000000)
   0.986306836  -0.000000000   0.000000000
  -0.493153418   0.854166776   0.000000000
   0.000000000   0.000000000   8.333333333

ATOMIC_POSITIONS (crystal)
C             0.3333333333        0.6666666667        0.5000000000
C             0.6666666667        0.3333333333        0.5000000000

     Writing output data file ./work/LiC486.save/
     NEW-OLD atomic charge density approx. for the potential

     negative rho (up, down):  6.170E-06 0.000E+00
     extrapolated charge    7.77672, renormalised to    8.00000

[...]

     Energy error            =      1.1E-02
     Gradient error          =      0.0E+00
     Cell gradient error     =      4.1E-04

[...]

     enthalpy old            =     -22.7745821288 Ry
     enthalpy new            =     -22.7854328648 Ry

     CASE: enthalpy_new < enthalpy_old

[...]

          k =-0.0000 0.0793 0.0000 (  5037 PWs)   bands (ev):

[...]

     negative rho (up, down):  6.319E-07 0.000E+00
     extrapolated charge    8.04228, renormalised to    8.00000

[...]

     Writing output data file ./work/LiC486.save/
     NEW-OLD atomic charge density approx. for the potential
     extrapolated charge    7.99733, renormalised to    8.00000

[...]

     Threshold (ethr) on eigenvalues was too large:
     Diagonalizing with lowered threshold

     Davidson diagonalization with overlap
     ethr =  2.59E-08,  avg # of iterations =  1.0

[...]

     CASE: enthalpy_new < enthalpy_old

     small trust_radius: resetting bfgs history

     new trust radius        =       0.0000028734 bohr
     new conv_thr            =            1.0E-10 Ry

[...]

     Writing output data file ./work/LiC486.save/
     NEW-OLD atomic charge density approx. for the potential
     extrapolated charge    7.99999, renormalised to    8.00000

[...]

     Energy error            =      5.3E-11
     Gradient error          =      0.0E+00
     Cell gradient error     =      2.3E-08

     number of scf cycles    =   7
     number of bfgs steps    =   6

     enthalpy old            =     -22.7969044692 Ry
     enthalpy new            =     -22.7969044692 Ry

     CASE: enthalpy_new > enthalpy_old

     new trust radius        =       0.0000003403 bohr

     trust_radius < trust_radius_min

     resetting bfgs history

     Message from routine bfgs:
     history already reset at previous step: stopping
     new conv_thr            =            1.0E-10 Ry

     new unit-cell volume =    753.32180 a.u.^3 (   111.63077 Ang^3 )
     density =      0.35733 g/cm^3

[...]

ATOMIC_POSITIONS (crystal)
C             0.3333333333        0.6666666667        0.5000000000
C             0.6666666667        0.3333333333        0.5000000000

     Writing output data file ./work/LiC486.save/
     NEW-OLD atomic charge density approx. for the potential

[...]

     Threshold (ethr) on eigenvalues was too large:
     Diagonalizing with lowered threshold

     Davidson diagonalization with overlap
     ethr =  8.50E-13,  avg # of iterations =  1.8

[...]

     Message from routine bfgs:
     history already reset at previous step: stopping
     Energy error            =      6.9E-12
     Gradient error          =      1.8E-26
     Cell gradient error     =      1.1E-08

     bfgs converged in   8 scf cycles and   6 bfgs steps
     (criteria: energy <  1.0E-04 Ry, force <  1.0E-08Ry/Bohr, cell <  1.0E-03kbar)

     End of BFGS Geometry Optimization

     Final enthalpy =     -22.7969044692 Ry

     File ./work/LiC486.bfgs deleted, as requested
Begin final coordinates
     new unit-cell volume =    753.32180 a.u.^3 (   111.63077 Ang^3 )
     density =      0.35733 g/cm^3

CELL_PARAMETERS (alat=  4.86000000)
   0.953588867   0.000000000   0.000000000
  -0.476794434   0.825832184   0.000000000
   0.000000000   0.000000000   8.333333333

ATOMIC_POSITIONS (crystal)
C             0.3333333333        0.6666666667        0.5000000000
C             0.6666666667        0.3333333333        0.5000000000
End final coordinates

     Writing output data file ./work/LiC486.save/

     Final scf calculation at the relaxed structure.
     The G-vectors are recalculated for the final unit cell
     Results may differ from those at the preceding step.

     bravais-lattice index     =            4
     lattice parameter (alat)  =       4.8600  a.u.
     unit-cell volume          =     753.3218 (a.u.)^3
     number of atoms/cell      =            2
     number of atomic types    =            1
     number of electrons       =         8.00
     number of Kohn-Sham states=            8
     kinetic-energy cutoff     =      50.0000  Ry
     charge density cutoff     =     200.0000  Ry
     scf convergence threshold =      1.0E-10
     mixing beta               =       0.7000
     number of iterations used =            8  plain     mixing
     press convergence thresh. =      1.0E-03
     Exchange-correlation= PBE
                           (   1   4   3   4   0   0   0)

     celldm(1)=   4.860000  celldm(2)=   0.000000  celldm(3)=   8.333333
     celldm(4)=   0.000000  celldm(5)=   0.000000  celldm(6)=   0.000000

     crystal axes: (cart. coord. in units of alat)
               a(1) = (   0.953589   0.000000   0.000000 )
               a(2) = (  -0.476794   0.825832   0.000000 )
               a(3) = (   0.000000   0.000000   8.333333 )

     reciprocal axes: (cart. coord. in units 2 pi/alat)
               b(1) = (  1.048670  0.605450  0.000000 )
               b(2) = ( -0.000000  1.210900  0.000000 )
               b(3) = (  0.000000  0.000000  0.120000 )

     PseudoPot. # 1 for C  read from file:
     /home/yhkim/qe-6.7/pseudo/ONCV1/1.2/C_ONCV_PBE-1.2.upf
     MD5 check sum: 1a5f83a7b1f58d24996abe00ed223ac6
     Pseudo is Norm-conserving, Zval =  4.0
     Generated using ONCVPSP code by D. R. Hamann
     Using radial grid of  602 points,  4 beta functions with:
                l(1) =   0
                l(2) =   0
                l(3) =   1
                l(4) =   1

     atomic species   valence    mass     pseudopotential
        C              4.00    12.01070     C ( 1.00)

     24 Sym. Ops., with inversion, found

   Cartesian axes

     site n.     atom                  positions (alat units)
         1           C   tau(   1) = (  -0.0000000   0.5505548   4.1666667  )
         2           C   tau(   2) = (   0.4767944   0.2752774   4.1666667  )

     number of k points=    27  Methfessel-Paxton smearing, width (Ry)=  0.0100
                       cart. coord. in units 2pi/alat
        k(    1) = (   0.0000000   0.0000000   0.0000000), wk =   0.0088889
        k(    2) = (  -0.0000000   0.0807267   0.0000000), wk =   0.0533333
        k(    3) = (  -0.0000000   0.1614533   0.0000000), wk =   0.0533333
        k(    4) = (  -0.0000000   0.2421800   0.0000000), wk =   0.0533333
        k(    5) = (  -0.0000000   0.3229066   0.0000000), wk =   0.0533333
        k(    6) = (  -0.0000000   0.4036333   0.0000000), wk =   0.0533333
        k(    7) = (  -0.0000000   0.4843599   0.0000000), wk =   0.0533333
        k(    8) = (  -0.0000000   0.5650866   0.0000000), wk =   0.0533333
        k(    9) = (   0.0699113   0.1210900   0.0000000), wk =   0.0533333
        k(   10) = (   0.0699113   0.2018166   0.0000000), wk =   0.1066667
        k(   11) = (   0.0699113   0.2825433   0.0000000), wk =   0.1066667
        k(   12) = (   0.0699113   0.3632699   0.0000000), wk =   0.1066667
        k(   13) = (   0.0699113   0.4439966   0.0000000), wk =   0.1066667
        k(   14) = (   0.0699113   0.5247232   0.0000000), wk =   0.1066667
        k(   15) = (   0.0699113   0.6054499   0.0000000), wk =   0.0533333
        k(   16) = (   0.1398227   0.2421800   0.0000000), wk =   0.0533333
        k(   17) = (   0.1398227   0.3229066   0.0000000), wk =   0.1066667
        k(   18) = (   0.1398227   0.4036333   0.0000000), wk =   0.1066667
        k(   19) = (   0.1398227   0.4843599   0.0000000), wk =   0.1066667
        k(   20) = (   0.1398227   0.5650866   0.0000000), wk =   0.1066667
        k(   21) = (   0.2097340   0.3632699   0.0000000), wk =   0.0533333
        k(   22) = (   0.2097340   0.4439966   0.0000000), wk =   0.1066667
        k(   23) = (   0.2097340   0.5247232   0.0000000), wk =   0.1066667
        k(   24) = (   0.2097340   0.6054499   0.0000000), wk =   0.0533333
        k(   25) = (   0.2796453   0.4843599   0.0000000), wk =   0.0533333
        k(   26) = (   0.2796453   0.5650866   0.0000000), wk =   0.1066667
        k(   27) = (   0.3495567   0.6054499   0.0000000), wk =   0.0177778

     Initial potential from superposition of free atoms

     starting charge    7.98607, renormalised to    8.00000

     negative rho (up, down):  1.160E-04 0.000E+00
     Starting wfcs are random

     Self-consistent Calculation

[...]

     negative rho (up, down):  2.973E-06 0.000E+00

[...]

     iteration #  3     ecut=    50.00 Ry     beta= 0.70
     Davidson diagonalization with overlap
     c_bands:  1 eigenvalues not converged
     ethr =  2.93E-05,  avg # of iterations =  9.2

[...]

     total energy              =     -22.79060524 Ry
     estimated scf accuracy    <          9.9E-10 Ry

     iteration #  7     ecut=    50.00 Ry     beta= 0.70
     Davidson diagonalization with overlap
     ethr =  1.24E-11,  avg # of iterations =  3.3

     End of self-consistent calculation

[...]

          k =-0.0000 0.5651 0.0000 (  4521 PWs)   bands (ev):

[...]

          k = 0.3496 0.6054 0.0000 (  4473 PWs)   bands (ev):

   -16.8770 -16.8770 -14.9142  -4.1956  -4.1956   6.4526   8.7985   8.7992

     the Fermi energy is    -4.1956 ev

!    total energy              =     -22.79060524 Ry
     estimated scf accuracy    <          1.0E-11 Ry
     smearing contrib. (-TS)   =      -0.00005015 Ry
     internal energy E=F+TS    =     -22.79055509 Ry

     The total energy is F=E-TS. E is the sum of the following terms:
     one-electron contribution =    -391.07345246 Ry
     hartree contribution      =     196.16624748 Ry
     xc contribution           =      -7.03339260 Ry
     ewald contribution        =     179.15004248 Ry

     convergence has been achieved in   7 iterations

     Forces acting on atoms (cartesian axes, Ry/au):

     atom    1 type  1   force =     0.00000000    0.00000000    0.00000000
     atom    2 type  1   force =    -0.00000000   -0.00000000    0.00000000

     Total force =     0.000000     Total SCF correction =     0.000000

     Computing stress (Cartesian axis) and pressure

          total   stress  (Ry/bohr**3)                   (kbar)     P=       -8.79
  -0.00003500   0.00000000   0.00000000           -5.15        0.00        0.00
   0.00000000  -0.00003500   0.00000000            0.00       -5.15        0.00
   0.00000000   0.00000000  -0.00010933            0.00        0.00      -16.08

     Writing output data file ./work/LiC486.save/

     General routines

     Parallel routines

   This run was terminated on:  14:18:20  19Jan2024

   JOB DONE.