     Program PWSCF v.6.7MaX starts on 19Jan2024 at 14:13:29

     R & G space division:  proc/nbgrp/npool/nimage =      32
     Waiting for input...
     Reading input from standard input

     Current dimensions of program PWSCF are:
     Max number of different atomic species (ntypx) = 10
     Max number of k-points (npk) =  40000
     Max angular momentum in pseudopotentials (lmaxx) =  3
     Message from routine read_pp_mesh:
     mesh size missing, using the one in header

     Subspace diagonalization in iterative solution of the eigenvalue problem:
     a serial algorithm will be used

     bravais-lattice index     =            4
     lattice parameter (alat)  =       4.6300  a.u.
     unit-cell volume          =     751.8784 (a.u.)^3
     number of atoms/cell      =            2
     number of atomic types    =            1
     number of electrons       =         8.00
     number of Kohn-Sham states=            8
     kinetic-energy cutoff     =      50.0000  Ry
     charge density cutoff     =     200.0000  Ry
     scf convergence threshold =      1.0E-08
     mixing beta               =       0.7000
     number of iterations used =            8  plain     mixing
     energy convergence thresh.=      1.0E-04
     force convergence thresh. =      1.0E-08
     press convergence thresh. =      1.0E-03
     Exchange-correlation= PBE
                           (   1   4   3   4   0   0   0)
     nstep                     =           50

     celldm(1)=   4.630000  celldm(2)=   0.000000  celldm(3)=   8.747300
     celldm(4)=   0.000000  celldm(5)=   0.000000  celldm(6)=   0.000000

     crystal axes: (cart. coord. in units of alat)
               a(1) = (   1.000000   0.000000   0.000000 )
               a(2) = (  -0.500000   0.866025   0.000000 )
               a(3) = (   0.000000   0.000000   8.747300 )

     reciprocal axes: (cart. coord. in units 2 pi/alat)
               b(1) = (  1.000000  0.577350  0.000000 )
               b(2) = (  0.000000  1.154701  0.000000 )
               b(3) = (  0.000000  0.000000  0.114321 )

     PseudoPot. # 1 for C  read from file:
     /home/yhkim/qe-6.7/pseudo/ONCV1/1.2/C_ONCV_PBE-1.2.upf
     MD5 check sum: 1a5f83a7b1f58d24996abe00ed223ac6
     Pseudo is Norm-conserving, Zval =  4.0
     Generated using ONCVPSP code by D. R. Hamann
     Using radial grid of  602 points,  4 beta functions with:
                l(1) =   0
                l(2) =   0
                l(3) =   1
                l(4) =   1

     atomic species   valence    mass     pseudopotential
        C              4.00    12.01070     C ( 1.00)

     24 Sym. Ops., with inversion, found

   Cartesian axes

     site n.     atom                  positions (alat units)
         1           C   tau(   1) = (  -0.0000000   0.5773503   4.3736501  )
         2           C   tau(   2) = (   0.5000000   0.2886751   4.3736501  )

     number of k points=    27  Methfessel-Paxton smearing, width (Ry)=  0.0100
                       cart. coord. in units 2pi/alat
        k(    1) = (   0.0000000   0.0000000   0.0000000), wk =   0.0088889
        k(    2) = (   0.0000000   0.0769800   0.0000000), wk =   0.0533333
        k(    3) = (   0.0000000   0.1539601   0.0000000), wk =   0.0533333
        k(    4) = (   0.0000000   0.2309401   0.0000000), wk =   0.0533333
        k(    5) = (   0.0000000   0.3079201   0.0000000), wk =   0.0533333
        k(    6) = (   0.0000000   0.3849002   0.0000000), wk =   0.0533333
        k(    7) = (   0.0000000   0.4618802   0.0000000), wk =   0.0533333
        k(    8) = (   0.0000000   0.5388603   0.0000000), wk =   0.0533333
        k(    9) = (   0.0666667   0.1154701   0.0000000), wk =   0.0533333
        k(   10) = (   0.0666667   0.1924501   0.0000000), wk =   0.1066667
        k(   11) = (   0.0666667   0.2694301   0.0000000), wk =   0.1066667
        k(   12) = (   0.0666667   0.3464102   0.0000000), wk =   0.1066667
        k(   13) = (   0.0666667   0.4233902   0.0000000), wk =   0.1066667
        k(   14) = (   0.0666667   0.5003702   0.0000000), wk =   0.1066667
        k(   15) = (   0.0666667   0.5773503   0.0000000), wk =   0.0533333
        k(   16) = (   0.1333333   0.2309401   0.0000000), wk =   0.0533333
        k(   17) = (   0.1333333   0.3079201   0.0000000), wk =   0.1066667
        k(   18) = (   0.1333333   0.3849002   0.0000000), wk =   0.1066667
        k(   19) = (   0.1333333   0.4618802   0.0000000), wk =   0.1066667
        k(   20) = (   0.1333333   0.5388603   0.0000000), wk =   0.1066667
        k(   21) = (   0.2000000   0.3464102   0.0000000), wk =   0.0533333
        k(   22) = (   0.2000000   0.4233902   0.0000000), wk =   0.1066667
        k(   23) = (   0.2000000   0.5003702   0.0000000), wk =   0.1066667
        k(   24) = (   0.2000000   0.5773503   0.0000000), wk =   0.0533333
        k(   25) = (   0.2666667   0.4618802   0.0000000), wk =   0.0533333
        k(   26) = (   0.2666667   0.5388603   0.0000000), wk =   0.1066667
        k(   27) = (   0.3333333   0.5773503   0.0000000), wk =   0.0177778

     Initial potential from superposition of free atoms

     starting charge    7.98607, renormalised to    8.00000

     negative rho (up, down):  1.158E-04 0.000E+00
     Starting wfcs are random

     Self-consistent Calculation

     iteration #  1     ecut=    50.00 Ry     beta= 0.70
     Davidson diagonalization with overlap
     ethr =  1.00E-02,  avg # of iterations = 11.3

     negative rho (up, down):  1.283E-07 0.000E+00

     total energy              =     -22.75961459 Ry
     estimated scf accuracy    <       0.17545302 Ry

[...]

     End of self-consistent calculation

          k = 0.0000 0.0000 0.0000 (  4459 PWs)   bands (ev):

   -23.8885 -11.9474  -7.2640  -7.2640  -0.9837  -0.2035   0.5842   0.9392

[...]

     the Fermi energy is    -4.1866 ev

!    total energy              =     -22.79050779 Ry
     estimated scf accuracy    <          2.7E-10 Ry
     smearing contrib. (-TS)   =      -0.00005015 Ry
     internal energy E=F+TS    =     -22.79045764 Ry

     The total energy is F=E-TS. E is the sum of the following terms:
     one-electron contribution =    -391.83303823 Ry
     hartree contribution      =     196.54800966 Ry
     xc contribution           =      -7.03754326 Ry
     ewald contribution        =     179.53211419 Ry

     convergence has been achieved in   6 iterations

     Forces acting on atoms (cartesian axes, Ry/au):

     atom    1 type  1   force =     0.00000000    0.00000000    0.00000000
     atom    2 type  1   force =     0.00000000    0.00000000    0.00000000

     Total force =     0.000000     Total SCF correction =     0.000000

     Computing stress (Cartesian axis) and pressure

          total   stress  (Ry/bohr**3)                   (kbar)     P=       -7.54
  -0.00002218   0.00000000   0.00000000           -3.26        0.00        0.00
   0.00000000  -0.00002218   0.00000000            0.00       -3.26        0.00
   0.00000000   0.00000000  -0.00010942            0.00        0.00      -16.10

     BFGS Geometry Optimization
     Energy error            =      0.0E+00
     Gradient error          =      0.0E+00
     Cell gradient error     =      2.2E-05

     number of scf cycles    =   1
     number of bfgs steps    =   0

     enthalpy new            =     -22.7905077906 Ry

     new trust radius        =       0.0030408819 bohr
     new conv_thr            =       0.0000000100 Ry

     new unit-cell volume =    751.04486 a.u.^3 (   111.29337 Ang^3 )
     density =      0.35841 g/cm^3

CELL_PARAMETERS (alat=  4.63000000)
   0.999445507   0.000000000   0.000000000
  -0.499722754   0.865545199   0.000000000
   0.000000000   0.000000000   8.747300216

ATOMIC_POSITIONS (crystal)
C             0.3333333333        0.6666666667        0.5000000000
C             0.6666666667        0.3333333333        0.5000000000

     Writing output data file ./work/LiC463.save/
     NEW-OLD atomic charge density approx. for the potential
     extrapolated charge    7.99114, renormalised to    8.00000

[...]

     iteration #  1     ecut=    50.00 Ry     beta= 0.70
     Davidson diagonalization with overlap
     c_bands:  1 eigenvalues not converged
     c_bands:  1 eigenvalues not converged
     c_bands:  1 eigenvalues not converged
     ethr =  1.00E-06,  avg # of iterations =  8.7

[...]

          k =-0.0000 0.0770 0.0000 (  4461 PWs)   bands (ev):

[...]

     Energy error            =      1.5E-05
     Gradient error          =      1.7E-26
     Cell gradient error     =      1.4E-05

[...]

     enthalpy old            =     -22.7905077906 Ry
     enthalpy new            =     -22.7905229860 Ry

     CASE: enthalpy_new < enthalpy_old

[...]

     number of scf cycles    =   3
     number of bfgs steps    =   2

     enthalpy old            =     -22.7905229860 Ry
     enthalpy new            =     -22.7905320495 Ry

     CASE: enthalpy_new < enthalpy_old

     new trust radius        =       0.0020912728 bohr
     new conv_thr            =            1.0E-10 Ry

     new unit-cell volume =    749.55578 a.u.^3 (   111.07271 Ang^3 )
     density =      0.35912 g/cm^3

[...]

ATOMIC_POSITIONS (crystal)
C             0.3333333333        0.6666666667        0.5000000000
C             0.6666666667        0.3333333333        0.5000000000

     Writing output data file ./work/LiC463.save/
     NEW-OLD atomic charge density approx. for the potential
     extrapolated charge    7.99390, renormalised to    8.00000

[...]

     Energy error            =      1.6E-06
     Gradient error          =      1.7E-26
     Cell gradient error     =      5.8E-09

     bfgs converged in   4 scf cycles and   3 bfgs steps
     (criteria: energy <  1.0E-04 Ry, force <  1.0E-08Ry/Bohr, cell <  1.0E-03kbar)

     End of BFGS Geometry Optimization

     Final enthalpy =     -22.7905336274 Ry

     File ./work/LiC463.bfgs deleted, as requested
Begin final coordinates
     new unit-cell volume =    749.55578 a.u.^3 (   111.07271 Ang^3 )
     density =      0.35912 g/cm^3

CELL_PARAMETERS (alat=  4.63000000)
   0.998454230   0.000000000   0.000000000
  -0.499227115   0.864686728   0.000000000
   0.000000000   0.000000000   8.747300216

ATOMIC_POSITIONS (crystal)
C             0.3333333333        0.6666666667        0.5000000000
C             0.6666666667        0.3333333333        0.5000000000
End final coordinates

     Writing output data file ./work/LiC463.save/

     Final scf calculation at the relaxed structure.
     The G-vectors are recalculated for the final unit cell
     Results may differ from those at the preceding step.

     bravais-lattice index     =            4
     lattice parameter (alat)  =       4.6300  a.u.
     unit-cell volume          =     749.5558 (a.u.)^3
     number of atoms/cell      =            2
     number of atomic types    =            1
     number of electrons       =         8.00
     number of Kohn-Sham states=            8
     kinetic-energy cutoff     =      50.0000  Ry
     charge density cutoff     =     200.0000  Ry
     scf convergence threshold =      1.0E-10
     mixing beta               =       0.7000
     number of iterations used =            8  plain     mixing
     press convergence thresh. =      1.0E-03
     Exchange-correlation= PBE
                           (   1   4   3   4   0   0   0)

     celldm(1)=   4.630000  celldm(2)=   0.000000  celldm(3)=   8.747300
     celldm(4)=   0.000000  celldm(5)=   0.000000  celldm(6)=   0.000000

     crystal axes: (cart. coord. in units of alat)
               a(1) = (   0.998454   0.000000   0.000000 )
               a(2) = (  -0.499227   0.864687   0.000000 )
               a(3) = (   0.000000   0.000000   8.747300 )

     reciprocal axes: (cart. coord. in units 2 pi/alat)
               b(1) = (  1.001548  0.578244  0.000000 )
               b(2) = ( -0.000000  1.156488  0.000000 )
               b(3) = (  0.000000  0.000000  0.114321 )

     PseudoPot. # 1 for C  read from file:
     /home/yhkim/qe-6.7/pseudo/ONCV1/1.2/C_ONCV_PBE-1.2.upf
     MD5 check sum: 1a5f83a7b1f58d24996abe00ed223ac6
     Pseudo is Norm-conserving, Zval =  4.0
     Generated using ONCVPSP code by D. R. Hamann
     Using radial grid of  602 points,  4 beta functions with:
                l(1) =   0
                l(2) =   0
                l(3) =   1
                l(4) =   1

     atomic species   valence    mass     pseudopotential
        C              4.00    12.01070     C ( 1.00)

     24 Sym. Ops., with inversion, found

   Cartesian axes

     site n.     atom                  positions (alat units)
         1           C   tau(   1) = (  -0.0000000   0.5764578   4.3736501  )
         2           C   tau(   2) = (   0.4992271   0.2882289   4.3736501  )

     number of k points=    27  Methfessel-Paxton smearing, width (Ry)=  0.0100
                       cart. coord. in units 2pi/alat
        k(    1) = (   0.0000000   0.0000000   0.0000000), wk =   0.0088889
        k(    2) = (  -0.0000000   0.0770992   0.0000000), wk =   0.0533333
        k(    3) = (  -0.0000000   0.1541984   0.0000000), wk =   0.0533333
        k(    4) = (  -0.0000000   0.2312976   0.0000000), wk =   0.0533333
        k(    5) = (  -0.0000000   0.3083969   0.0000000), wk =   0.0533333
        k(    6) = (  -0.0000000   0.3854961   0.0000000), wk =   0.0533333
        k(    7) = (  -0.0000000   0.4625953   0.0000000), wk =   0.0533333
        k(    8) = (  -0.0000000   0.5396945   0.0000000), wk =   0.0533333
        k(    9) = (   0.0667699   0.1156488   0.0000000), wk =   0.0533333
        k(   10) = (   0.0667699   0.1927480   0.0000000), wk =   0.1066667
        k(   11) = (   0.0667699   0.2698472   0.0000000), wk =   0.1066667
        k(   12) = (   0.0667699   0.3469465   0.0000000), wk =   0.1066667
        k(   13) = (   0.0667699   0.4240457   0.0000000), wk =   0.1066667
        k(   14) = (   0.0667699   0.5011449   0.0000000), wk =   0.1066667
        k(   15) = (   0.0667699   0.5782441   0.0000000), wk =   0.0533333
        k(   16) = (   0.1335398   0.2312976   0.0000000), wk =   0.0533333
        k(   17) = (   0.1335398   0.3083969   0.0000000), wk =   0.1066667
        k(   18) = (   0.1335398   0.3854961   0.0000000), wk =   0.1066667
        k(   19) = (   0.1335398   0.4625953   0.0000000), wk =   0.1066667
        k(   20) = (   0.1335398   0.5396945   0.0000000), wk =   0.1066667
        k(   21) = (   0.2003096   0.3469465   0.0000000), wk =   0.0533333
        k(   22) = (   0.2003096   0.4240457   0.0000000), wk =   0.1066667
        k(   23) = (   0.2003096   0.5011449   0.0000000), wk =   0.1066667
        k(   24) = (   0.2003096   0.5782441   0.0000000), wk =   0.0533333
        k(   25) = (   0.2670795   0.4625953   0.0000000), wk =   0.0533333
        k(   26) = (   0.2670795   0.5396945   0.0000000), wk =   0.1066667
        k(   27) = (   0.3338494   0.5782441   0.0000000), wk =   0.0177778

     Initial potential from superposition of free atoms

     starting charge    7.98607, renormalised to    8.00000

     negative rho (up, down):  1.139E-04 0.000E+00
     Starting wfcs are random

     Self-consistent Calculation

     iteration #  1     ecut=    50.00 Ry     beta= 0.70
     Davidson diagonalization with overlap
     c_bands:  1 eigenvalues not converged
     c_bands:  5 eigenvalues not converged
     c_bands:  3 eigenvalues not converged
     c_bands:  5 eigenvalues not converged
     c_bands:  5 eigenvalues not converged
     c_bands:  3 eigenvalues not converged
     c_bands:  3 eigenvalues not converged
     c_bands:  2 eigenvalues not converged
     c_bands:  2 eigenvalues not converged
     c_bands:  4 eigenvalues not converged
     c_bands:  4 eigenvalues not converged
     c_bands:  4 eigenvalues not converged
     c_bands:  4 eigenvalues not converged
     c_bands:  3 eigenvalues not converged
     c_bands:  2 eigenvalues not converged
     c_bands:  4 eigenvalues not converged
     c_bands:  4 eigenvalues not converged
     c_bands:  4 eigenvalues not converged
     c_bands:  3 eigenvalues not converged
     c_bands:  3 eigenvalues not converged
     c_bands:  4 eigenvalues not converged
     c_bands:  3 eigenvalues not converged
     c_bands:  3 eigenvalues not converged
     c_bands:  3 eigenvalues not converged
     c_bands:  4 eigenvalues not converged
     c_bands:  3 eigenvalues not converged
     c_bands:  3 eigenvalues not converged
     ethr =  1.00E-06,  avg # of iterations = 22.2

[...]

     negative rho (up, down):  3.006E-06 0.000E+00

[...]

     total energy              =     -22.79025004 Ry
     estimated scf accuracy    <          8.1E-10 Ry

     iteration #  7     ecut=    50.00 Ry     beta= 0.70
     Davidson diagonalization with overlap
     ethr =  1.02E-11,  avg # of iterations =  3.3

     End of self-consistent calculation

[...]

          k =-0.0000 0.5397 0.0000 (  4511 PWs)   bands (ev):

[...]

          k = 0.3338 0.5782 0.0000 (  4425 PWs)   bands (ev):

   -16.8767 -16.8767 -14.9487  -4.1730  -4.1730   6.4860   8.8715   8.8716

     the Fermi energy is    -4.1730 ev

!    total energy              =     -22.79025004 Ry
     estimated scf accuracy    <          9.2E-12 Ry
     smearing contrib. (-TS)   =      -0.00005015 Ry
     internal energy E=F+TS    =     -22.79019989 Ry

     The total energy is F=E-TS. E is the sum of the following terms:
     one-electron contribution =    -393.06148756 Ry
     hartree contribution      =     197.16542033 Ry
     xc contribution           =      -7.04424799 Ry
     ewald contribution        =     180.15011533 Ry

     convergence has been achieved in   7 iterations

     Forces acting on atoms (cartesian axes, Ry/au):

     atom    1 type  1   force =    -0.00000000   -0.00000000    0.00000000
     atom    2 type  1   force =     0.00000000    0.00000000    0.00000000

     Total force =     0.000000     Total SCF correction =     0.000000

     Computing stress (Cartesian axis) and pressure

          total   stress  (Ry/bohr**3)                   (kbar)     P=       -5.54
  -0.00000149   0.00000000  -0.00000000           -0.22        0.00       -0.00
  -0.00000000  -0.00000149   0.00000000           -0.00       -0.22        0.00
   0.00000000   0.00000000  -0.00010996            0.00        0.00      -16.18

     Writing output data file ./work/LiC463.save/

     General routines

     Parallel routines

   This run was terminated on:  14:13:36  19Jan2024

   JOB DONE.